50
Lattice="12.3 0.0 0.0 6.15 10.652112466548596 0.0 0.0 0.0 20.0" Properties=species:S:1:pos:R:3 pbc="T T F"
C        0.00236558       0.00136577      10.00338888
C        1.23010813       0.71020326      10.00697066
C        1.23012382       2.12785999      10.00339400
C        2.46427142       2.83976973       9.99452143
C        2.45174078       4.25786662       9.98841911
C        3.67100729       4.97941460       9.97924469
C        3.67827148       6.39809638       9.98289347
C        4.90326602       7.11370470       9.97925589
C        4.91848443       8.53042659       9.98841531
C        6.15289508       9.22871883       9.99451880
C        2.45784272       0.00138848      10.00339400
C        3.69144844       0.71423678       9.99452143
C        3.71083087       2.14244920       9.98800583
C        4.94887160       2.85723235       9.98845681
C        4.90598789       4.29722744       9.99834195
C        6.07670350       5.01336139      10.03864916
C        6.11160615       6.38530176       9.99833789
C        7.38014103       7.06825079       9.98843731
C        7.38012308       8.49783231       9.98800137
C        8.60731805       9.22875191       9.99451622
C        4.91329105      -0.00566351       9.98841911
C        6.14780319       0.68947827       9.97924469
C        6.17450207       2.10009643       9.99834195
N        7.38005008       2.75589891      10.03864916
C        8.68374887       5.01356475      10.03882233
C        8.64871458       6.38542079       9.99834442
C        9.85701107       7.11385035       9.97918842
C        9.84171951       8.53053213       9.98838375
C       11.06922231       9.23245387       9.99713860
C        7.38004974      -0.01357165       9.98289347
C        8.61228200       0.68950059       9.97925589
C        8.58563662       2.10015531       9.99833789
C        9.81135526       2.85726422       9.98843731
C        9.85429391       4.29729614       9.99834442
C       11.08928065       4.97949682       9.97918842
C       11.08199005       6.39818994       9.98286541
C       12.30629411       7.10504222       9.99931466
C       12.30078240       8.52134086      10.00251633
C       13.53006065       9.22480204       9.99931082
C        9.84680835      -0.00568083       9.98841531
C       11.06875249       0.71420403       9.99451880
C       11.04940019       2.14245791       9.98800137
C       12.29599262       2.83978013       9.99451622
C       12.30851729       4.25791305       9.98838375
C       13.53015074       4.97000079       9.99713860
C       13.53008886       6.39211962      10.00251633
C       14.75394324       7.10497522       9.99931082
C       14.75933451       8.52130575      10.00251476
C       15.99094020       9.23237363       9.99714560
Ni       7.38008043       4.26089142      11.23366198
