50
Lattice="12.3 0.0 0.0 6.15 10.652112466548596 0.0 0.0 0.0 20.0" Properties=species:S:1:pos:R:3 pbc="T T F"
C        0.00187318       0.00108148       9.99653331
C        1.23014152       0.71022253      10.00533879
C        1.23014405       2.12849761       9.99652746
C        2.46509834       2.84049651       9.98661131
C        2.45501966       4.25905247       9.97741758
C        3.67624265       4.97902542       9.97549519
C        3.67987330       6.39722452       9.98280110
C        4.90630094       7.10938022       9.97551544
C        4.91916957       8.52703582       9.97742246
C        6.15274109       9.22767483       9.98660628
C        2.45840503       0.00108719       9.99652746
C        3.69249131       0.71458953       9.98661131
C        3.71269769       2.14352701       9.98687070
C        4.95078295       2.85833587       9.99097218
C        4.91680950       4.29760034       9.99765931
N        6.09034698       5.00536519      10.03490564
C        6.11673731       6.37562999       9.99765061
C        7.38019691       7.06597637       9.99093349
C        7.38017324       8.49565937       9.98684961
C        8.60757551       9.22769885       9.98658605
C        4.91595747      -0.00341685       9.97741758
C        6.15008382       0.69420682       9.97549519
C        6.18023582       2.10928177       9.99765931
C        7.37994690       2.77171261      10.03490564
C        8.67015729       5.00571764      10.03499821
C        8.64373174       6.37584024       9.99763637
C        9.85412119       7.10955827       9.97544337
C        9.84115423       8.52714378       9.97737035
C       11.07053226       9.23174430       9.98522066
C        7.38009559      -0.01174850       9.98280110
C        8.61005434       0.69429114       9.97551544
C        8.57982619       2.10943491       9.99765061
C        9.80941349       2.85844982       9.99093349
C        9.84350549       4.29777115       9.99763637
C       11.08411866       4.97914015       9.97544337
C       11.08051347       6.39733744       9.98275314
C       12.30560188       7.10464256      10.00025449
C       12.30056771       8.52153376      10.00053963
C       13.53011970       9.22571506      10.00027635
C        9.84421442      -0.00339209       9.97742246
C       11.06777136       0.71459267       9.98660628
C       11.04754345       2.14358782       9.98684961
C       12.29520938       2.84052963       9.98658605
C       12.30530024       4.25911767       9.97737035
C       13.53019122       4.97149002       9.98522066
C       13.53014857       6.39183724      10.00053963
C       14.75476346       7.10456985      10.00027635
C       14.75967785       8.52150398      10.00055933
C       15.98974036       9.23168090       9.98524934
Pd       7.37996535       4.26082498      11.63115296
