50
Lattice="12.3 0.0 0.0 6.15 10.652112466548596 0.0 0.0 0.0 20.0" Properties=species:S:1:pos:R:3 pbc="T T F"
C        0.00296563       0.00171221      10.00215804
C        1.23004685       0.71016788      10.00351569
C        1.23007585       2.12706409      10.00215507
C        2.46267601       2.83899501       9.99667572
C        2.45007886       4.25698928       9.99080976
C        3.66924570       4.97902955       9.98340914
C        3.67784491       6.39827760       9.98773752
C        4.90264612       7.11534569       9.98340760
C        4.91835018       8.53222290       9.99080532
C        6.15270506       9.23039808       9.99667786
C        2.45712946       0.00174489      10.00215507
C        3.68997980       0.71324248       9.99667572
C        3.70610274       2.13971941       9.99251702
C        4.94411976       2.85448888       9.99156728
C        4.89746175       4.29152107       9.99896824
C        6.06529409       5.01996179      10.04137194
C        6.11223386       6.39552663       9.99893934
C        7.38009362       7.07369724       9.99150637
C        7.38007821       8.50322399       9.99250838
C        8.60740492       9.23044144       9.99667586
C        4.91170029      -0.00666410       9.99080976
C        6.14658893       0.68814522       9.98340914
C        6.16529714       2.09556576       9.99896824
C        7.38006148       2.74271786      10.04137194
C        8.69507266       5.02010254      10.04128783
C        8.64799051       6.39563036       9.99888266
C        9.85752402       7.11549825       9.98337277
C        9.84175553       8.53234132       9.99080258
C       11.06861854       9.23275457       9.99781119
C        7.37999340      -0.01403167       9.98773752
C        8.61339319       0.68814324       9.98340760
C        8.59480546       2.09558648       9.99893934
C        9.81604832       2.85449994       9.99150637
C        9.86277362       4.29156429       9.99888266
C       11.09096426       4.97911709       9.98337277
C       11.08231157       6.39837557       9.98772818
C       12.30577510       7.10474257       9.99882478
C       12.30095088       8.52117925      10.00076166
C       13.53000293       9.22530442       9.99881725
C        9.84829687      -0.00669524       9.99080532
C       11.07011175       0.71319985       9.99667786
C       11.05404710       2.13972321       9.99250838
C       12.29749923       2.83901060       9.99667586
C       12.31010210       4.25703965       9.99080258
C       13.53010927       4.96932756       9.99781119
C       13.53003314       6.39234633      10.00076166
C       14.75434945       7.10467404       9.99881725
C       14.75905147       8.52114234      10.00076202
C       15.99143733       9.23266065       9.99781163
Co       7.38025778       4.26099381      11.07006866
