52
Lattice="12.3 0.0 0.0 6.15 10.652112466548596 0.0 0.0 0.0 20.0" Properties=species:S:1:pos:R:3:forces:R:3:energies:R:1 energy=-454.1813049316406 stress="0.0008836633642204106 1.9131173090158882e-08 -9.95438842466001e-09 1.9131173090158882e-08 0.0009205461828969419 8.162170672676439e-08 -9.95438842466001e-09 8.162170672676439e-08 -1.0590049441816518e-06" free_energy=-454.1813049316406 pbc="T T F"
C        0.00465567       0.00783424       9.96471562      -0.01087476      -0.00354694      -0.00591571      -9.10311559
C        1.23223475       0.71761405       9.96818916      -0.00008035      -0.00742766      -0.00019207      -9.10103993
C        1.23221785       2.13606063       9.95872236       0.00011696       0.00443239       0.00329285      -9.10368037
C        2.45676659       2.84787776       9.96081198       0.00134841       0.00000069      -0.00062693      -9.08929205
C        2.45414478       4.26633828       9.93773135      -0.00213187       0.00557632      -0.00149668      -9.09490158
C        3.67424941       4.98385203       9.96551282      -0.00503719      -0.00075775      -0.00413100      -9.02337095
C        3.68793470       6.40257540       9.94551720       0.00198423      -0.00246961      -0.00003899      -9.11673753
C        4.91119710       7.12088919       9.97448327      -0.00105393       0.01003897      -0.00096731      -9.01958342
C        4.92053810       8.53753166       9.94596988       0.00035919      -0.00143798       0.00808472      -9.09553517
C        6.15044863       9.24238293       9.97149721       0.00299277       0.00075092      -0.00184498      -9.08676796
C        2.45981510       0.00781349       9.96478615       0.01007936      -0.00293186      -0.00623925      -9.10310084
C        3.68836176       0.71413559       9.96506296       0.00422207       0.00357679      -0.00067123      -9.08698650
C        3.68918624       2.13712207       9.99006543       0.00883514       0.00882103       0.00043328      -9.11303750
C        4.90520044       2.83773341      10.08216132       0.00190942      -0.00253661      -0.00048798      -9.03436524
C        4.89714576       4.26489737      10.10738761      -0.00458308      -0.00167966       0.00156239      -9.09607691
C        6.01525966       5.04650159      10.33642086       0.00417617       0.00047043      -0.00629270      -8.37696713
C        6.14119037       6.41143524      10.12270317      -0.00431009       0.00400095      -0.00572789      -9.10143550
C        7.38220626       7.12199446      10.09420801       0.00008338       0.00694010      -0.00689986      -9.02824195
C        7.38220393       8.52771586      10.00274471       0.00035293      -0.00565235      -0.00434878      -9.10882092
C        8.61398895       9.24235803       9.97148245      -0.00276320       0.00159155      -0.00175005      -9.08673988
C        4.91734954       0.00627964       9.94565813       0.00540200      -0.00129873       0.00148196      -9.09261230
C        6.14878934       0.70959033       9.97765360      -0.00444369       0.00142011       0.00359597      -9.02452488
C        6.13973275       2.12786091      10.13385330      -0.00037861      -0.00347352       0.00224513      -9.05317460
C        7.38225266       2.70229587      10.41731174       0.00008866      -0.01400675      -0.00265759      -8.54681373
C        8.74903523       5.04640609      10.33580825      -0.00310057       0.00112399      -0.00615823      -8.37723553
C        8.62322452       6.41143123      10.12241145       0.00405098       0.00345336      -0.00531434      -9.10125722
C        9.85323458       7.12091413       9.97428449       0.00068884       0.00912422      -0.00087358      -9.01960362
C        9.84392657       8.53755568       9.94591594      -0.00137580      -0.00237863       0.00815372      -9.09555718
C       11.07492900       9.24108198       9.92769181      -0.00746831       0.00122742       0.00408403      -9.08511555
C        7.38221166       0.00867069       9.95199382       0.00009339       0.01384890       0.01074035      -9.11928904
C        8.61563219       0.70959396       9.97753070       0.00524894       0.00084035       0.00360925      -9.02448599
C        8.62472178       2.12787787      10.13362942       0.00023668      -0.00420883       0.00230882      -9.05331081
C        9.85924985       2.83772625      10.08175398      -0.00213881      -0.00229542      -0.00054601      -9.03446481
C        9.86724485       4.26485819      10.10686555       0.00461697      -0.00138277       0.00206877      -9.09607953
C       11.09016070       4.98384467       9.96522600       0.00514240      -0.00077265      -0.00410746      -9.02339739
C       11.07647396       6.40256806       9.94530917      -0.00218032      -0.00263503       0.00010117      -9.11678155
C       12.30612209       7.11359402       9.92330734      -0.00093669      -0.00631915      -0.00257531      -9.07986102
C       12.30326591       8.53138112       9.92481365      -0.00021292      -0.00458935      -0.00832434      -9.10819998
C       13.53221238       9.24006726       9.92675584       0.00039655       0.01156613      -0.00354633      -9.07727377
C        9.84710545       0.00628473       9.94557747      -0.00579122      -0.00143947       0.00118990      -9.09257019
C       11.07609830       0.71414052       9.96492684      -0.00424935       0.00333092      -0.00062133      -9.08701162
C       11.07526807       2.13710903       9.98982651      -0.00935447       0.00927788       0.00054717      -9.11312807
C       12.30765929       2.84787966       9.96068564      -0.00041565      -0.00006296      -0.00053901      -9.08929713
C       12.31030056       4.26634183       9.93761919       0.00095565       0.00553434      -0.00163450      -9.09487689
C       13.53222452       4.98257232       9.92165242      -0.00024074      -0.00815861       0.00248655      -9.08406104
C       13.53220528       6.40235147       9.92004286       0.00012227      -0.01171846       0.00218188      -9.10853608
C       14.75827826       7.11361405       9.92337554       0.00198817      -0.00662309      -0.00257052      -9.07983774
C       14.76117765       8.53140190       9.92482041      -0.00011744      -0.00493836      -0.00825709      -9.10818398
C       15.98953548       9.24107962       9.92768093       0.00702005       0.00123419       0.00422019      -9.08509114
Pd       7.38237457       4.28132619      11.63252130       0.00172387      -0.00887150       0.02227211       6.99646997
H        6.45009942       3.50297806      12.68735953      -0.00776178       0.00276219       0.00526077      -9.06843317
H        8.31779933       3.50382566      12.68534039       0.00676543       0.00267184       0.00543582      -9.06811357
