52
Lattice="12.3 0.0 0.0 6.15 10.652112466548596 0.0 0.0 0.0 20.0" Properties=species:S:1:pos:R:3:forces:R:3:energies:R:1 energy=-455.3157043457031 stress="0.0008907236624509096 -5.5021740053007306e-08 -3.342438770204126e-09 -5.5021740053007306e-08 0.000890207476913929 -5.7881536008608236e-08 -3.342438770204126e-09 -5.7881536008608236e-08 -6.304134331003297e-06" free_energy=-455.3157043457031 pbc="T T F"
C        0.00164707       0.00114398       9.95193241       0.00450211       0.00241849       0.00550153      -9.10363308
C        1.23013519       0.71049920       9.95232744       0.00019411      -0.00093484       0.03433534      -9.10031494
C        1.23014208       2.12909211       9.95184043      -0.00068761      -0.00729822       0.00587952      -9.10356747
C        2.45421153       2.84112608       9.95907920       0.01762024      -0.01685881      -0.00903254      -9.08902390
C        2.45291342       4.25996645       9.94390935       0.00752629      -0.02500808      -0.00848071      -9.09330434
C        3.67656668       4.97501114       9.96900203      -0.00091437       0.00151746      -0.01821242      -9.03045678
C        3.68712519       6.39328784       9.95392162      -0.01482468       0.00750761      -0.01634382      -9.11983891
C        4.91015706       7.11147181       9.96899402      -0.00161534       0.00031055      -0.01872207      -9.03030898
C        4.91765322       8.52870162       9.94394065       0.02415320       0.00416272      -0.00874272      -9.09339468
C        6.14698339       9.23714987       9.95913021       0.02243990      -0.00721572      -0.00919645      -9.08906652
C        2.45863103       0.00114782       9.95192395      -0.00500314       0.00187615       0.00549730      -9.10364699
C        3.68734756       0.70503970       9.95915710      -0.00481162       0.02348924      -0.00890166      -9.08897114
C        3.68568884       2.12806550       9.98399351       0.03133817       0.01775902      -0.00914821      -9.10798271
C        4.90320779       2.83091821      10.05672698       0.02296235       0.01359800      -0.00605290      -9.02928373
C        4.89996252       4.25634785      10.08287432       0.01339507       0.00078359      -0.00029488      -9.07571970
C        6.04287071       5.03311521      10.26872959       0.02405889      -0.01427552       0.02601999      -8.46492723
C        6.14422733       6.41106249      10.08250165       0.00573152      -0.01368912       0.00038071      -9.07591355
C        7.38014918       7.12118834      10.05604925      -0.00026492      -0.02652358      -0.00571405      -9.02898835
C        7.38014231       8.52714270       9.98383096       0.00006582      -0.03773412      -0.00915863      -9.10814150
C        8.61329979       9.23714985       9.95912653      -0.02245083      -0.00692201      -0.00917351      -9.08903974
C        4.91537937      -0.00573150       9.94398355      -0.01642594       0.01902138      -0.00850856      -9.09344794
C        6.14650710       0.69616483       9.96931121       0.00157910       0.00023580      -0.01878530      -9.03003122
C        6.13589167       2.11505299      10.08330169       0.00834861       0.01304910      -0.00037855      -9.07595287
C        7.38011982       2.71549191      10.26954022       0.00045039       0.03124521       0.02581507      -8.46384868
C        8.71741674       5.03314398      10.26872430      -0.02388101      -0.01476922       0.02607536      -8.46488732
C        8.61607401       6.41108271      10.08249221      -0.00582053      -0.01370731       0.00044411      -9.07595266
C        9.85013787       7.11148942       9.96899257       0.00214011       0.00012280      -0.01872921      -9.03025790
C        9.84264287       8.52871901       9.94394462      -0.02487328       0.00355334      -0.00874464      -9.09344745
C       11.07362245       9.22977561       9.92809724      -0.02618788       0.01651502       0.03160027      -9.08843023
C        7.38014667      -0.00372209       9.95407416      -0.00081332      -0.01446227      -0.01645716      -9.11986262
C        8.61375316       0.69617549       9.96931128      -0.00009705      -0.00014404      -0.01882931      -9.03003603
C        8.62436765       2.11506582      10.08329719      -0.00871523       0.01323113      -0.00029123      -9.07595015
C        9.85704476       2.83094493      10.05672939      -0.02189969       0.01270264      -0.00618392      -9.02926195
C        9.86032456       4.25636795      10.08286002      -0.01388659       0.00096710      -0.00014165      -9.07575329
C       11.08371662       4.97502894       9.96900011       0.00213856       0.00086011      -0.01825920      -9.03041226
C       11.07318597       6.39329831       9.95392498       0.01334311       0.00763003      -0.01631812      -9.11989370
C       12.30297753       7.10320465       9.93087468       0.01346129       0.00726722      -0.00526768      -9.08222151
C       12.30196807       8.52065737       9.92781031      -0.01605040       0.00911403       0.00899087      -9.10875608
C       13.53013233       9.22842206       9.93079021       0.00128629      -0.01198555      -0.00460019      -9.08209343
C        9.84490593      -0.00573934       9.94398447       0.01534120       0.01994655      -0.00849469      -9.09342380
C       11.07291773       0.70505178       9.95917000       0.00555964       0.02280664      -0.00894946      -9.08898109
C       11.07458480       2.12807195       9.98400698      -0.03235032       0.01838195      -0.00914244      -9.10798773
C       12.30605254       2.84113449       9.95908855      -0.01642545      -0.01727376      -0.00906304      -9.08901331
C       12.30739748       4.25997020       9.94391380      -0.00965571      -0.02476281      -0.00846401      -9.09332313
C       13.53014002       4.97538992       9.92813274       0.00099095      -0.03238236       0.03128133      -9.08848742
C       13.53015917       6.39365210       9.92789420      -0.00119044      -0.01907718       0.00865704      -9.10871883
C       14.75730199       7.10319837       9.93086206      -0.01135227       0.00734238      -0.00523188      -9.08225384
C       14.75833986       8.52064980       9.92779133       0.01395459       0.00946379       0.00908203      -9.10871840
C       15.98665200       9.22977476       9.92808280       0.02760004       0.01603201       0.03165744      -9.08847333
Pd       7.38015468       4.26027150      11.49485755       0.00001772       0.00245263      -0.01124319       7.37010527
H        6.99544251       4.26040948      13.93602190      -0.00751669      -0.00017019       0.04401165      -9.77030349
H        7.76449459       4.26041465      13.93606731       0.00751392      -0.00016964       0.04402849      -9.77030420
