52
Lattice="12.3 0.0 0.0 6.15 10.652112466548596 0.0 0.0 0.0 20.0" Properties=species:S:1:pos:R:3:forces:R:3:energies:R:1 energy=-454.3108825683594 stress="0.0009167917305603623 6.39487325315713e-07 4.3902477386836836e-07 6.39487325315713e-07 0.0009355985675938427 1.1124615184598952e-06 4.3902477386836836e-07 1.1124615184598952e-06 1.8206469576398376e-06" free_energy=-454.3108825683594 pbc="T T F"
C        0.00431698      -0.00387207       9.95386512       0.00932135       0.00884018      -0.01041343      -9.10243173
C        1.23213122       0.70707452       9.95567047       0.01905635       0.00258477       0.01070232      -9.09837797
C        1.23353175       2.12642135       9.94836073      -0.00880468      -0.01123225      -0.00031448      -9.10219692
C        2.45954246       2.83733541       9.94968024      -0.01311399      -0.00747679      -0.00043998      -9.08892575
C        2.45816798       4.25611706       9.92864330      -0.00541830      -0.00976717       0.01065110      -9.09358138
C        3.67992887       4.97244023       9.96060717      -0.01031664      -0.00080252      -0.00987054      -9.03098829
C        3.69055001       6.39013753       9.94184892      -0.00964816       0.00671074      -0.00915583      -9.12053648
C        4.91361236       7.10752504       9.96948438      -0.00273925      -0.00525557      -0.00723349      -9.02633108
C        4.92170729       8.52416446       9.93568923      -0.00075181       0.00507124       0.02420133      -9.09444673
C        6.15162057       9.23042687       9.96001199      -0.00707163       0.01732098       0.00162849      -9.08643137
C        2.46049443      -0.00258128       9.95161925       0.01356940      -0.01581552      -0.01270781      -9.10219304
C        3.68974730       0.70358817       9.95213004       0.00922439       0.00255876       0.00609264      -9.08683208
C        3.69133682       2.12616944       9.97963393      -0.00806059      -0.00049128      -0.00335349      -9.11492756
C        4.90819220       2.82655598      10.07592979      -0.01724060       0.01306438      -0.00801584      -9.04528229
C        4.90491626       4.25217908      10.10590733       0.00982727       0.01279327       0.00921842      -9.09801923
C        6.03297854       5.03102363      10.33698947       0.03635564      -0.00862832      -0.01908612      -8.43811607
C        6.14493849       6.40017419      10.11687555       0.02274194       0.00709696      -0.00241901      -9.08755045
C        7.38298575       7.11006415      10.08741068      -0.00111631       0.01424785      -0.02780380      -9.02316983
C        7.38344115       8.51682968       9.99380737      -0.01507841       0.00455095      -0.00568508      -9.10616826
C        8.61449313       9.23156249       9.95904345      -0.00492288      -0.00576244       0.01083909      -9.08652085
C        4.91904830      -0.00445412       9.93415454       0.00414760      -0.00383843       0.01446944      -9.09049256
C        6.15074556       0.69991831       9.97043003      -0.00461525      -0.00787025       0.00362875      -9.02873442
C        6.14191626       2.11836444      10.12854956      -0.02430908      -0.00768632       0.02727413      -9.06777622
C        7.38322917       2.70179095      10.40408733       0.00277731      -0.03538949      -0.00869161      -8.57924241
C        8.73087474       5.02901025      10.32848400      -0.01664329      -0.00049745      -0.01400739      -8.43673787
C        8.62010736       6.39902790      10.11329819      -0.00940706       0.02055361       0.00795156      -9.08818886
C        9.85197752       7.10699366       9.97035992       0.00811080       0.00960032      -0.01216929      -9.02556868
C        9.84376373       8.52422167       9.93737106       0.00445014       0.00830073       0.01434393      -9.09431538
C       11.07459831       9.22910768       9.91821487       0.01116125       0.00819058       0.01933342      -9.08411829
C        7.38301852      -0.00213456       9.94649835      -0.00710350      -0.01767840       0.01111022      -9.11967522
C        8.61532158       0.69942734       9.97024577      -0.00663038      -0.00331157       0.01210464      -9.02974102
C        8.62467632       2.11763178      10.12903764       0.02763174       0.00020349       0.01315472      -9.06887071
C        9.85859587       2.82589278      10.07569001       0.01912619       0.01238778      -0.00436741      -9.04614586
C        9.86092654       4.25169155      10.10246533       0.00486784       0.01055399       0.00779277      -9.09820402
C       11.08650640       4.97231110       9.96144926       0.01441562       0.00359689      -0.00767011      -9.03096972
C       11.07585329       6.39019713       9.94434619      -0.00049094       0.00867156      -0.01570984      -9.12010054
C       12.30606785       7.10094198       9.91932761       0.00027184       0.00021091       0.00047600      -9.07998216
C       12.30369131       8.51942244       9.91930958       0.00150749      -0.00466524      -0.01978131      -9.10601023
C       13.53265653       9.22870993       9.92046824       0.00320002      -0.01372118      -0.00132278      -9.07775067
C        9.84642780      -0.00524027       9.93512532      -0.00082200       0.00859012       0.01196340      -9.09096268
C       11.07572572       0.70285264       9.95625014       0.00051170       0.00758480      -0.00726978      -9.08671202
C       11.07601940       2.12581791       9.98385394      -0.00636348      -0.00900576      -0.01699536      -9.11416028
C       12.30798064       2.83761968       9.95288648      -0.01098799      -0.01760447      -0.00498175      -9.08877227
C       12.30866105       4.25637762       9.93138417      -0.00271548      -0.01774781      -0.00125439      -9.09407991
C       13.53339155       4.97050835       9.91278918      -0.00368309      -0.00900926       0.02188734      -9.08346415
C       13.53322643       6.38986302       9.91276100      -0.00699569       0.00627776       0.00593377      -9.10672888
C       14.76024811       7.10038697       9.91636643      -0.01024806       0.01155756       0.00687283      -9.08052821
C       14.76139303       8.51866632       9.91693604       0.01193156       0.01235628      -0.01619920      -9.10597101
C       15.99044438       9.22843701       9.91642016       0.00365062       0.01901033       0.02181682      -9.08379930
Pd       7.38699369       4.26420146      11.66286743      -0.02386124      -0.02548039       0.02159423       7.14851999
H        6.07666745       3.58198239      12.52033976       0.00502664      -0.01259942      -0.03542131      -9.11321044
H        8.69530599       3.55841469      12.50290074      -0.00372545       0.00885135      -0.01270062      -9.10557222
