52
Lattice="12.3 0.0 0.0 6.15 10.652112466548596 0.0 0.0 0.0 20.0" Properties=species:S:1:pos:R:3:forces:R:3:energies:R:1 energy=-454.24395751953125 stress="0.0009154236176982522 8.556974353268743e-05 -4.415781518218864e-07 8.556974353268743e-05 0.0010137265780940652 -5.613379130409157e-07 -4.415781518218864e-07 -5.613379130409157e-07 -1.1488730677911008e-07" free_energy=-454.24395751953125 pbc="T T F"
C        0.19540450      -0.00462962       9.96098257       0.00727878       0.00038468      -0.00028909      -9.09906675
C        1.42219005       0.70877165       9.96574856      -0.00311045       0.00620067      -0.00549890      -9.09907331
C        1.42730582       2.12797715       9.96174468       0.00427290       0.01224252      -0.00959752      -9.10865809
C        2.65105917       2.84649850       9.95293587      -0.00768642       0.00501688       0.00509523      -9.10224144
C        2.63717398       4.26456221       9.93991349       0.00282928       0.01042593      -0.00023221      -9.07906994
C        3.85014624       4.99027853       9.95853363       0.00306316      -0.00883049      -0.00253326      -9.05245703
C        3.85171032       6.40659393       9.95446879       0.00302289      -0.01151163      -0.00743413      -9.13630912
C        5.07815777       7.11632892       9.96184213      -0.00131094       0.00117579       0.00567700      -9.04847489
C        5.10004200       8.53017849       9.94923243       0.00520864      -0.00997763       0.00870855      -9.08509316
C        6.33538335       9.22801686       9.95564919      -0.00240703       0.00614543       0.00837827      -9.10096610
C        2.65101644      -0.00073154       9.96217792       0.00580873       0.00195342      -0.00444329      -9.09088573
C        3.88018858       0.71911092       9.96390287      -0.00041240      -0.00431731      -0.00705662      -9.07877192
C        3.88910553       2.14902881       9.97279128      -0.00064993       0.00007705       0.00348107      -9.07851952
C        5.11236748       2.87432666      10.01827222      -0.00165582      -0.00361331       0.00498045      -8.94756575
C        5.08385853       4.30561815      10.01001295       0.00761774      -0.00551610       0.00797528      -8.95599389
N        6.25221642       5.02115489      10.06046077       0.00423867       0.00402677       0.01047432      -7.80178815
C        6.28900201       6.39059516      10.01175601       0.00258203       0.00049870       0.00216451      -8.95166817
C        7.54274523       7.08204114      10.01940964       0.00003468       0.00283153      -0.00002836      -8.94724818
C        7.55922616       8.50405796       9.97267065      -0.00017919      -0.00363468       0.00699900      -9.07236886
C        8.79306570       9.22706249       9.96211875      -0.01151055       0.00444026       0.00348402      -9.07887521
C        5.10741329       0.00706706       9.95350220       0.00615905      -0.00435487      -0.00156152      -9.08556066
C        6.33928339       0.71741052       9.97974041      -0.00050304       0.00561048       0.00310800      -9.02315356
C        6.34598488       2.14720662      10.08668131       0.00041360       0.00383966       0.00727031      -9.07512887
C        7.59598912       2.73234701      10.34167142       0.00743724      -0.00063826       0.00242060      -8.55227694
C        8.90848436       5.00327167      10.34432055      -0.00481746      -0.00402848      -0.00515783      -8.55319867
C        8.78941486       6.37796082      10.08796292       0.00309147       0.00121051      -0.00218977      -9.07466480
C       10.02393756       7.09886438       9.97803689      -0.00352073      -0.00165896       0.00342255      -9.02333927
C       10.02352233       8.52077771       9.95118322      -0.00355405      -0.00250586       0.00561709      -9.08528668
C       11.25387992       9.23609048       9.94535449      -0.00806984      -0.00397444      -0.00721477      -9.08164985
C        7.56672302       0.00705227       9.97245068      -0.00568841       0.00046944      -0.00714413      -9.11834164
C        8.80619685       0.69984896       9.99000205      -0.00014381       0.00007270      -0.00182028      -9.03998405
C        8.82723234       2.11120137      10.12471885       0.00223234      -0.00015402       0.00912805      -9.04267927
C       10.05617291       2.82595893      10.08613820       0.00116199      -0.00173128       0.00983112      -9.02601615
C       10.06130654       4.24736961      10.12444673       0.00279973       0.00358811       0.00806522      -9.04292938
C       11.27302663       4.97114558       9.98623617      -0.00606313      -0.00672342       0.00264675      -9.04168446
C       11.25282502       6.39114588       9.96808636       0.00310636      -0.00208017      -0.00539739      -9.11732957
C       12.48051547       7.10622431       9.94765232      -0.00860224      -0.00145210      -0.00017132      -9.08445562
C       12.48382044       8.52576636       9.94824500      -0.00028510      -0.00673373      -0.00201318      -9.10205813
C       13.71112555       9.23841552       9.95272687       0.00004935       0.00135959      -0.00624798      -9.08433212
C       10.03544385      -0.00340595       9.95928006      -0.00184385      -0.00518634      -0.00132415      -9.09098350
C       11.26722044       0.70204915       9.97186589      -0.00498756      -0.00196327      -0.00814630      -9.08731590
C       11.27190254       2.12444538      10.00121750      -0.00177266       0.00019865      -0.00286838      -9.10615826
C       12.50179584       2.83951681       9.97114109      -0.01008864      -0.00477037       0.00245626      -9.09460956
C       12.49650181       4.25857582       9.95473375       0.00737531       0.00474536      -0.00679163      -9.09754653
C       13.71527469       4.97649724       9.93679009      -0.00979201       0.00352643      -0.00007480      -9.08821338
C       13.70634880       6.39565276       9.94342564       0.00309762       0.00179998      -0.00155861      -9.11247709
C       14.92794277       7.11297417       9.94781468       0.00226813       0.00210044      -0.00408522      -9.09603244
C       14.93863922       8.53041353       9.94988255       0.00435842      -0.00538391      -0.00763945      -9.10305682
C       16.17189890       9.23338979       9.94675344       0.00270018       0.00503343      -0.01084160      -9.09489316
Pd       7.52856335       4.28465143      11.59528257      -0.00221603       0.00156137      -0.00497237       7.47163343
H        1.76957216       4.50644876      12.91116928       0.00890710       0.00598800       0.00618392      -9.78651214
H        2.50569152       4.28421558      12.86689930      -0.00024345       0.00421765      -0.00323353      -9.78882074
