52
Lattice="12.3 0.0 0.0 6.15 10.652112466548596 0.0 0.0 0.0 20.0" Properties=species:S:1:pos:R:3:forces:R:3:energies:R:1 energy=-454.5403137207031 stress="0.0011302095372229815 0.00010999055666616186 6.630419875364169e-07 0.00010999055666616186 0.001078982837498188 1.6120719692480634e-07 6.630419875364169e-07 1.6120719692480634e-07 1.7629728290557978e-06" free_energy=-454.5403137207031 pbc="T T F"
C       -0.02123574       0.01416317      10.00055360       0.00403265       0.00447146      -0.01231028      -9.09701639
C        1.20821438       0.72410713      10.00966242       0.00779434       0.00538917      -0.01684851      -9.09740053
C        1.21277662       2.14352040      10.01290665       0.01084626       0.01845706      -0.02784536      -9.08978440
C        2.44842758       2.85881306      10.00397135       0.00480827       0.01513104      -0.00918887      -9.08653221
C        2.42964999       4.27617028       9.97529653       0.02721853       0.00991617       0.01473529      -9.07953274
C        3.64901465       5.00275327       9.97615269       0.02474809       0.00597333       0.00208580      -9.03756723
C        3.64074479       6.41789072       9.95497654      -0.01078938      -0.00474554       0.02942612      -9.12527999
C        4.86184847       7.13314827       9.96811109      -0.00570646      -0.01436803      -0.00537624      -9.04763471
C        4.88451769       8.54719490       9.96552083       0.00232983      -0.02640697       0.03644379      -9.08634415
C        6.11828721       9.24556081       9.98686691      -0.01449133      -0.00819046       0.02765278      -9.09747434
C        2.43947195       0.01839282       9.99642583       0.00932910      -0.00012833       0.01771252      -9.08394994
C        3.67585542       0.73682030       9.99853312      -0.01023935       0.00222142       0.03225108      -9.08038433
C        3.70307758       2.16992641      10.01830908      -0.01968040      -0.00820410       0.01372045      -9.03216603
C        4.94412844       2.88945322      10.06574444      -0.00881663      -0.02545543      -0.02973568      -8.83201948
C        4.90337910       4.33743211      10.04577026       0.01191935      -0.02135707       0.00072597      -9.03565632
N        6.05225359       5.05424314      10.05110856       0.00036979       0.00969222       0.00498205      -7.89307189
C        6.06538473       6.40143618      10.04521524       0.01237381      -0.00268948      -0.00171286      -9.02618033
C        7.32616726       7.09875445      10.09194691       0.02102668       0.00754426      -0.01127533      -8.94169339
C        7.34198045       8.51775132      10.01584735       0.00323649       0.00570694       0.00644302      -9.06825644
C        8.57844929       9.24352763       9.99741423      -0.00362737       0.00327713       0.01268070      -9.06967452
C        4.89624490       0.01668427       9.99316967      -0.01371827       0.00650588       0.01216347      -9.07587264
C        6.13252769       0.72202022      10.02619659      -0.01180599       0.00370724      -0.01479121      -9.02963565
C        6.17827907       2.14367969      10.10729256       0.01050916       0.00801042      -0.03057447      -9.00937170
N        7.38585000       2.76247515      10.26535660       0.02081023       0.00256854      -0.00290912      -7.93541369
C        8.71283026       5.05595031      10.56351721       0.01426774      -0.00061148       0.00038975      -8.55491781
C        8.56940369       6.39851376      10.18073085       0.01570594       0.00325065       0.00881419      -9.07429147
C        9.80023064       7.11095857      10.02431029       0.00149490       0.00493199       0.01219609      -9.00873247
C        9.80554617       8.53370698       9.98303218      -0.00855117      -0.00478781       0.01990104      -9.08224085
C       11.03812138       9.24600640       9.97948922      -0.01324659       0.00004640       0.00590090      -9.08681935
C        7.35375798       0.00409674      10.01437971      -0.02646977      -0.03074862       0.00665351      -9.12892058
C        8.58446823       0.70363279      10.03503557      -0.02948049      -0.02691302      -0.01698598      -9.05181344
C        8.56230992       2.11159809      10.13947198       0.00672174      -0.01040167      -0.03380026      -8.98923085
C        9.79940039       2.83617314      10.14056049       0.00528982       0.00622804      -0.01778717      -8.93930995
C        9.80815286       4.26335687      10.20777295       0.01573949       0.00106034       0.00193267      -9.07096805
C       11.03770195       4.97470004      10.03270685      -0.00765646       0.03733244       0.00702226      -9.01724340
C       11.02531014       6.39381246      10.00442323       0.00201890       0.01931197      -0.01341365      -9.11457247
C       12.25750345       7.10876705       9.97650427      -0.00523805       0.00049628      -0.01606325      -9.07588258
C       12.26396488       8.52979286       9.98197541      -0.00431369      -0.01549012      -0.02211174      -9.09785466
C       13.49441124       9.23876087       9.98725042      -0.00726710      -0.01847136      -0.01021866      -9.08779341
C        9.81715271       0.00786407      10.00018471      -0.00517381      -0.01558072       0.01492760      -9.08744022
C       11.04519619       0.71741203      10.01309698      -0.01630364       0.00494746       0.00175107      -9.09818025
C       11.03312093       2.13925104      10.05033961       0.00573960       0.01329716      -0.01173127      -9.08142886
C       12.27496620       2.84723003      10.02186597      -0.00200567       0.02286981      -0.02205479      -9.07732223
C       12.26926591       4.26603344       9.99201058      -0.00100890       0.02522011       0.01873684      -9.08759376
C       13.49598872       4.98154822       9.96224423       0.00900583       0.00373810       0.03819862      -9.08705935
C       13.48853796       6.40372604       9.95837164       0.00089395      -0.00695926       0.02709441      -9.09930041
C       14.71235670       7.12012773       9.95308108      -0.01142801       0.00834260       0.01517259      -9.09243745
C       14.72424232       8.53648335       9.96983265       0.00806882      -0.00739193      -0.02538311      -9.09881403
C       15.95474528       9.24673926       9.97243398       0.00305291      -0.01358438      -0.00469913      -9.10040191
Pd       7.25739835       4.34945091      11.73517770      -0.01079372       0.02310124      -0.01182938       6.61230230
H        8.09778209       4.23310601      12.93952483      -0.03808951       0.00522918      -0.00813645      -9.93067861
H        8.17786102       3.48678752      12.66424661       0.02654937      -0.02548878      -0.01293147      -9.97367382
