52
Lattice="12.3 0.0 0.0 6.15 10.652112466548596 0.0 0.0 0.0 20.0" Properties=species:S:1:pos:R:3:forces:R:3:energies:R:1 energy=-454.6163330078125 stress="0.0009451621444895864 0.0001225765299750492 8.823784583000815e-07 0.0001225765299750492 0.0010866897646337748 -5.137395646670484e-07 8.823784583000815e-07 -5.137395646670484e-07 9.0983292011515e-08" free_energy=-454.6163330078125 pbc="T T F"
C        0.01911374      -0.01519663       9.99196326       0.00289497       0.00418633       0.00635859      -9.09864147
C        1.24556215       0.70131004       9.99582391       0.01221067      -0.00718248      -0.02182699      -9.09453294
C        1.25284362       2.12169797       9.99195986      -0.00176940      -0.00441148       0.00636445      -9.09863852
C        2.47583376       2.84474697       9.98402490       0.00402189      -0.00024732       0.01040406      -9.10468322
C        2.45507556       4.26253327       9.97081918       0.00605506      -0.00153565      -0.00600165      -9.08637342
C        3.66466747       4.99227462       9.95897206       0.00791180      -0.00347191       0.00380448      -9.04370838
C        3.66498877       6.40586628       9.95271677       0.00800162      -0.00466876      -0.01655255      -9.15290880
C        4.88903258       7.11294168       9.95899333       0.00692826      -0.00547219       0.00376856      -9.04372668
C        4.91621208       8.52534261       9.97082685       0.00410226      -0.00419330      -0.00598682      -9.08636954
C        6.15442737       9.21625853       9.98404163       0.00234130      -0.00376419       0.01041794      -9.10469392
C        2.47460195      -0.00828217       9.99302413       0.00360316      -0.00178640      -0.00898659      -9.08231120
C        3.70385592       0.71926135       9.99087012       0.00353725      -0.00291001       0.01520559      -9.07000579
C        3.71954475       2.15327227       9.99107668       0.00394934       0.00637097      -0.00801261      -9.06652524
C        4.94458807       2.88213234      10.00868831       0.00473262       0.00572962      -0.00754694      -8.91218973
C        4.90794002       4.31994822       9.90227490      -0.01083131      -0.00547755      -0.00814262      -8.96694748
N        6.03958391       5.03488214       9.69874529      -0.00312901       0.00202981      -0.01267152      -7.67608804
C        6.09291583       6.37238694       9.90231523      -0.00076243       0.01207090      -0.00816685      -8.96692121
C        7.35641747       7.05954974      10.00874732      -0.00247487      -0.00705494      -0.00756348      -8.91223566
C        7.37511376       8.48489737       9.99110986      -0.00354529      -0.00632927      -0.00800818      -9.06650698
C        8.60915831       9.21549957       9.99088692       0.00418050      -0.00197549       0.01518874      -9.07001339
C        4.92986008       0.00744060       9.98320943      -0.00965982      -0.00987373       0.01479193      -9.07466327
C        6.16511023       0.72624744       9.99860836      -0.02272929       0.00569990       0.00024079      -9.02423823
C        6.17800339       2.16003933      10.07187719       0.00280619       0.02076307       0.00706366      -9.08138286
C        7.42889328       2.76484207      10.33332582       0.01506656       0.00706393       0.00360127      -8.50196216
C        8.70016529       4.96673317      10.33335654       0.00119722      -0.01657294       0.00359203      -8.50201601
C        8.59848217       6.35243545      10.07191761      -0.01651090      -0.01289787       0.00704474      -9.08138062
C        9.83373392       7.08050377       9.99863326      -0.01641167       0.01649967       0.00024778      -9.02425614
C        9.83861328       8.50965693       9.98322197       0.00399669       0.01373889       0.01481151      -9.07466049
C       11.06802875       9.23312270       9.98335844       0.02857926      -0.01677900      -0.02698191      -9.07986718
C        7.38730097       0.00391695      10.00000962      -0.03108807      -0.00907164      -0.00565641      -9.12247220
C        8.62690534       0.69416551      10.02630953      -0.02783717      -0.01316964       0.00909012      -9.03217837
C        8.64188646       2.10631909      10.16455532       0.00269565      -0.00316596       0.00571255      -9.02067994
C        9.88248636       2.81618480      10.15022795      -0.00656682       0.00386385      -0.01527736      -9.01736832
C        9.87695221       4.24550899      10.16458128       0.00416262      -0.00065956       0.00564631      -9.02067120
C       11.09242247       4.96456761      10.02633653      -0.00280071       0.03061293       0.00907417      -9.03219110
C       11.07038503       6.38321967      10.00003036      -0.00728122       0.03159046      -0.00569162      -9.12245089
C       12.29470600       7.10335530       9.98138290       0.01385606      -0.00123390      -0.01058086      -9.08789259
C       12.29807366       8.52295109       9.98245577       0.03006054      -0.01693584      -0.01587709      -9.09969893
C       13.52580071       9.23567799       9.98137926       0.00788451      -0.01208012      -0.01065331      -9.08787872
C        9.85609812      -0.00909010       9.99473485       0.00217349       0.01307129      -0.01129505      -9.09271902
C       11.09136573       0.69195913      10.01023451       0.00085381       0.01504409      -0.00028689      -9.08308174
C       11.09763772       2.11461682      10.05326638      -0.01241812       0.00721703       0.00294203      -9.10283571
C       12.32655900       2.83138309      10.01024036      -0.01278262      -0.00826344      -0.00025997      -9.08308403
C       12.31604639       4.25168181       9.99475414      -0.00960814      -0.00844135      -0.01133330      -9.09271148
C       13.53074987       4.97365133       9.97121605      -0.00316462      -0.01477008       0.01946891      -9.09452288
C       13.52088498       6.39378191       9.96935617       0.01092240      -0.01816213       0.01626737      -9.10261390
C       14.74144781       7.11227624       9.96221177       0.00506942      -0.00323057       0.00853229      -9.09154385
C       14.75339582       8.52855036       9.96935053       0.02126241       0.00025788       0.01627709      -9.10261810
C       15.98819711       9.23008343       9.97120362       0.01137435       0.00951731       0.01950518      -9.09451644
Pd       7.68810720       4.08309959      11.79266265       0.00329226      -0.00192480      -0.02335590       6.82919550
H        6.55893105       4.73497789      12.00382266      -0.00924844       0.00537363       0.00258261      -9.82540774
H        6.35869026       4.85086421      11.28396633      -0.02910525       0.01701200       0.01871198      -9.88814664
