52
Lattice="12.3 0.0 0.0 6.15 10.652112466548596 0.0 0.0 0.0 20.0" Properties=species:S:1:pos:R:3:forces:R:3:energies:R:1 energy=-452.8059387207031 stress="0.0010766071500256658 1.5374460815564817e-07 -1.3751997585131903e-06 1.5374460815564817e-07 0.0011221361346542835 -2.8606973501155153e-07 -1.3751997585131903e-06 -2.8606973501155153e-07 -9.705987622510293e-07" free_energy=-452.8059387207031 pbc="T T F"
C        0.00464786       0.02802727       9.98015272       0.00041225      -0.01139047       0.00637616      -9.08566417
C        1.23382851       0.73816753       9.97803477      -0.00821012       0.00111428       0.01343511      -9.09682341
C        1.23310467       2.15847179       9.97396258       0.00969320      -0.00298071       0.01728164      -9.08860169
C        2.46732390       2.87204341       9.97193080       0.01180930      -0.01006871       0.00893193      -9.08908410
C        2.45796855       4.29043789       9.95408529       0.01519263      -0.01335246      -0.00468661      -9.08313139
C        3.67883866       5.01137041       9.96035388       0.00348076      -0.00063803       0.00082405      -9.03773999
C        3.68263498       6.42749588       9.95118440       0.00926085      -0.00418038       0.00341939      -9.13141431
C        4.90928504       7.13454197       9.96809884       0.00064234       0.00344393      -0.00499466      -9.03466249
C        4.92273505       8.55315854       9.96111307       0.00442993      -0.00312810       0.00429438      -9.08298200
C        6.15569878       9.25222937       9.98089034       0.01054782      -0.01065409       0.00631883      -9.08393416
C        2.46265844       0.02723162       9.97522241      -0.00678079       0.00641172       0.01559632      -9.08551948
C        3.69628578       0.74406800       9.97809470      -0.00508210       0.00061585       0.00151381      -9.08292957
C        3.71541194       2.17536898       9.99395705       0.00029920      -0.01178399      -0.01166755      -9.04626504
C        4.95254156       2.88967563      10.05484876      -0.01143619      -0.00023693       0.01110747      -8.84892464
C        4.92267008       4.33621404      10.04424752      -0.00816765      -0.00020239       0.00723319      -9.01575744
N        6.06271738       5.04488408      10.15759219      -0.01577926       0.01216906       0.00404093      -7.91062462
C        6.11599476       6.38943986      10.05429140      -0.00650999       0.00886914       0.00456676      -9.05636321
C        7.38349844       7.08576544      10.05104772      -0.00228742       0.00428689      -0.00252322      -8.82906694
C        7.38308506       8.51535602      10.00147520       0.01218377      -0.00101864      -0.00860853      -9.04551601
C        8.61083921       9.25139069       9.98356070       0.00084601       0.00711417      -0.00042000      -9.08392596
C        4.92039461       0.02692584       9.96839793       0.00136161       0.01604423       0.00145204      -9.08259185
C        6.15173517       0.72852438       9.99777277       0.01158927       0.00900924      -0.00508740      -9.02916056
C        6.18025264       2.14211117      10.10960173      -0.01056127       0.00963488      -0.00184111      -9.01170368
N        7.38232747       2.73584256      10.33926810      -0.01322253       0.01214290       0.02198166      -7.90249985
N        8.70721813       5.04646237      10.19752013      -0.02722251       0.00619915      -0.00391451      -7.90807927
C        8.65137459       6.38962915      10.07796053      -0.01483542       0.00270165      -0.02131733      -9.05688193
C        9.85743304       7.13447864       9.99016137      -0.00054278      -0.00954103      -0.00572673      -9.03580679
C        9.84409183       8.55239397       9.97065894      -0.00630356       0.00049107       0.00599364      -9.08342722
C       11.07299739       9.26129078       9.96041736      -0.01333638       0.01410552      -0.00941335      -9.09745292
C        7.38314035       0.02560709       9.98495674       0.00865113      -0.00578406      -0.00364262      -9.14015052
C        8.61464326       0.72894903      10.00619970       0.00532684       0.00625607      -0.01412570      -9.02897649
C        8.58674956       2.14196478      10.12466062      -0.01365564       0.01141725       0.00203502      -9.01504710
C        9.81495451       2.88887405      10.08349205      -0.01024193       0.01269351      -0.00396493      -8.85114526
C        9.84522529       4.33548178      10.08273168      -0.02514559       0.01175544      -0.01476975      -9.02210702
C       11.08769057       5.01097536       9.99006638      -0.00460988      -0.00639647      -0.00952350      -9.03915332
C       11.08322547       6.42689500       9.97665287       0.00654123      -0.00433953      -0.01632074      -9.13312127
C       12.30884665       7.13575146       9.95337982       0.00807789       0.00100517       0.00117191      -9.09168865
C       12.30441325       8.55245967       9.95369724      -0.01373544       0.00941315       0.00249361      -9.09748460
C       13.53340052       9.26088730       9.95581281      -0.00098333      -0.01014310       0.00854104      -9.08429319
C        9.84646321       0.02828319       9.97572416      -0.00284865      -0.01024968      -0.00557385      -9.08283393
C       11.07091045       0.74447161       9.99057133      -0.00104775      -0.00730146      -0.00851006      -9.08409528
C       11.05147487       2.17484673      10.01486929      -0.00044341       0.00214828      -0.01468509      -9.04827662
C       12.29862286       2.87148680       9.98653442       0.00928870       0.00103320      -0.00825965      -9.08997163
C       12.30743452       4.28983346       9.97006049       0.00933027      -0.00145508      -0.00537155      -9.08385539
C       13.53244085       5.00137715       9.95129657       0.01670494      -0.00527971      -0.00858613      -9.09985805
C       13.53250922       6.42288602       9.94385906       0.01515653      -0.00264977       0.01226920      -9.09788585
C       14.75655440       7.13664834       9.94079887       0.01332569      -0.01135295       0.01356659      -9.09039894
C       14.76276901       8.55379234       9.94777873      -0.00166095      -0.01573922       0.00030566      -9.09711111
C       15.99427199       9.26283942       9.95564089      -0.00064678      -0.01272821       0.00560308      -9.09776273
Pd       7.36387234       4.27359446      11.70568856       0.01580662       0.00596666      -0.01023601       6.48610449
H        6.61032680       3.56025232      12.92482543       0.02590388       0.00287534       0.01709762      -9.44749689
H        8.00747232       3.55035655      12.97768866      -0.00056508      -0.00632168       0.00631966      -9.44299483
