52
Lattice="12.3 0.0 0.0 6.15 10.652112466548596 0.0 0.0 0.0 20.0" Properties=species:S:1:pos:R:3:forces:R:3:energies:R:1 energy=-453.4085388183594 stress="0.0010736881522461772 -2.913891148637049e-05 -9.016163744490768e-07 -2.913891148637049e-05 0.0011134548112750053 6.009532285133901e-07 -9.016163744490768e-07 6.009532285133901e-07 1.7121263340413861e-07" free_energy=-453.4085388183594 pbc="T T F"
C        0.02424578       0.02048957      10.00771761      -0.00287633      -0.00415095       0.03961520      -9.08382902
C        1.25246801       0.73019658      10.01830903       0.00161699       0.00338322      -0.03797453      -9.09815392
C        1.25151509       2.15004766      10.01229456       0.00219794       0.01983966       0.01753389      -9.08846404
C        2.48648623       2.86159236      10.02385035       0.00630273       0.01564183       0.00024820      -9.08946650
C        2.48141289       4.28092052      10.01359553       0.00976299       0.00914980      -0.00621138      -9.08375134
C        3.70346637       4.99935330      10.04068368       0.00599071       0.00541183      -0.03644125      -9.04357921
C        3.71019633       6.41581942      10.02639991      -0.02643480      -0.00299523      -0.01963066      -9.13263574
C        4.93805044       7.12461180      10.03797669      -0.02365333      -0.00809878      -0.03418718      -9.03097612
C        4.94584991       8.54424737      10.01279950      -0.00394191      -0.01273608      -0.02911914      -9.08295409
C        6.17815317       9.24393677      10.01756210      -0.00917825      -0.00622912       0.00183908      -9.08103067
C        2.48138249       0.01932325      10.01993544       0.01090549      -0.00733572       0.02100038      -9.08778413
C        3.71483532       0.73408602      10.02988805       0.01035403      -0.00859774      -0.01394263      -9.08726276
C        3.73246720       2.16300809      10.04859368      -0.00875530      -0.01054404      -0.01979392      -9.05311544
C        4.97035459       2.87696184      10.10186401      -0.00627771      -0.01116541       0.00714414      -8.83470088
C        4.94450743       4.31743066      10.11747926      -0.00115724      -0.00004649      -0.01304652      -9.02163045
N        6.08101515       5.03509772      10.26130919      -0.00309521       0.01876262      -0.01578599      -7.89671516
C        6.14571317       6.38095101      10.11116163      -0.00953314       0.02908548       0.01308753      -9.04345325
C        7.40716953       7.07626352      10.07598872       0.00163288       0.04001024       0.02172496      -8.83777250
C        7.40594557       8.50608022      10.03427295       0.00090572       0.03286171      -0.00529814      -9.04269806
C        8.63175726       9.24440972      10.01923145       0.00706744      -0.01017138      -0.00291669      -9.08581699
C        4.94163412       0.02000463      10.01640944       0.01210484       0.01046433      -0.02137242      -9.08429483
C        6.17403182       0.71901644      10.03796748       0.01332745       0.00613412      -0.01314540      -9.04000939
C        6.20288382       2.13416385      10.12872497       0.00536042       0.00413096       0.01984504      -9.01508036
N        7.39721449       2.74956527      10.29100710       0.00425764       0.00730112      -0.01100315      -7.88623792
N        8.72010296       5.04123796      10.09064161      -0.00894707       0.00407410       0.00305477      -7.92452297
C        8.68064481       6.38706148      10.06397753       0.00604695       0.00688233       0.00673927      -9.05766591
C        9.88487233       7.13247332       9.99464834       0.01996769      -0.02054064      -0.01331998      -9.04021542
C        9.86668747       8.54835422       9.99776508       0.00285864      -0.01353727      -0.01695858      -9.08454509
C       11.09577019       9.25584883       9.99085317      -0.01119998       0.00338473       0.01133212      -9.09727420
C        7.40444610       0.01683809      10.01656391      -0.00655895      -0.00544059      -0.01785180      -9.13524461
C        8.63489093       0.72259337      10.02294015      -0.01192468       0.00003672      -0.01702472      -9.03067543
C        8.59991047       2.13820139      10.11037184       0.00389332       0.00061405       0.02390319      -9.02979755
C        9.82867112       2.88606308      10.06687331       0.01505435      -0.01878074       0.02046080      -8.84923762
C        9.86793319       4.33531704      10.05352024      -0.00647965      -0.01277900       0.00883904      -9.04450804
C       11.11345979       5.00756835       9.98570297      -0.00960569      -0.00419606       0.00075914      -9.04003835
C       11.10914155       6.42302523       9.97811726       0.02017704      -0.00878915       0.01260215      -9.13006507
C       12.33512884       7.13009273       9.97243908       0.00772450      -0.00947505       0.00345426      -9.09312846
C       12.32790641       8.54605224       9.97641869      -0.01305578       0.00046971       0.04444403      -9.09743401
C       13.55696390       9.25216264       9.98792617      -0.00064776      -0.00490520       0.00766604      -9.08606148
C        9.86778065       0.02048993       9.99866745      -0.01662101       0.00594914      -0.00437952      -9.08226275
C       11.08968537       0.73882126      10.00527270      -0.00942397      -0.01318511       0.02264393      -9.08071168
C       11.06621727       2.17115191      10.02008799       0.01110634      -0.01319379      -0.00017274      -9.04320019
C       12.31686383       2.86470065      10.00566408      -0.00584849       0.01227487      -0.00010437      -9.08768460
C       12.33054730       4.28272854       9.98565186      -0.01064667       0.00765798       0.01426773      -9.08319327
C       13.55739724       4.99316563       9.98962194      -0.00083196      -0.00772139       0.01149051      -9.09835821
C       13.55809382       6.41518919       9.98436044      -0.00327257      -0.00929576      -0.01423829      -9.09681226
C       14.78407978       7.12629260       9.99795846      -0.01198348      -0.00011597      -0.00919734      -9.08789369
C       14.78655387       8.54429097       9.98899875       0.00249830       0.00412057       0.03279089      -9.09722920
C       16.01696991       9.25363813       9.99701407       0.01045739       0.00347202       0.00480136      -9.09833314
Pd       7.55468321       4.32425788      11.75727189       0.02544067      -0.02764693       0.01472706       6.98433256
H        6.35305596       3.82188875      12.56282393       0.02218744      -0.00174552      -0.02169758      -9.96975136
H        7.00576962       3.59442740      12.94875677      -0.01724863       0.00230744       0.00879928      -9.99581218
