52
Lattice="12.3 0.0 0.0 6.15 10.652112466548596 0.0 0.0 0.0 20.0" Properties=species:S:1:pos:R:3:forces:R:3:energies:R:1 energy=-454.066162109375 stress="0.0011565379099920392 9.324584971182048e-05 5.969315566289879e-07 9.324584971182048e-05 0.0010490777203813195 -9.083790359909472e-07 5.969315566289879e-07 -9.083790359909472e-07 -1.434208769524048e-07" free_energy=-454.066162109375 pbc="T T F"
C       -0.01596533      -0.00655806       9.97012490       0.00506569      -0.00601313      -0.00270988      -9.09661628
C        1.21380762       0.70300872       9.98032512       0.00422595       0.01118547      -0.00435951      -9.09718063
C        1.21820731       2.12247365       9.97562515       0.00509617       0.01514363      -0.00283083      -9.08755799
C        2.45585406       2.83621913       9.97694971       0.01228987       0.00117167       0.00340742      -9.08447365
C        2.44161506       4.25326445       9.96340049      -0.00386048      -0.00044532      -0.00304376      -9.07795966
C        3.66605999       4.97586993       9.97570096      -0.01079553      -0.00673237      -0.00359380      -9.03200588
C        3.65383018       6.39127132       9.96089056      -0.00191625      -0.01084635      -0.00496922      -9.12631200
C        4.87590032       7.10601922       9.97265697      -0.00800871      -0.00008984      -0.00549040      -9.04611920
C        4.89355435       8.52131278       9.95720766       0.00077356      -0.00022689      -0.00613683      -9.08719209
C        6.12469977       9.22469987       9.97542589       0.00603733      -0.00705769      -0.00422777      -9.09707615
C        2.44539152      -0.00257509       9.98100577       0.00012183      -0.00345448      -0.00759213      -9.08738627
C        3.68177680       0.71322499       9.97688364       0.00290697      -0.01110548      -0.00106794      -9.08401883
C        3.71010249       2.14518686       9.99050256       0.00733399      -0.01265073       0.00438687      -9.03643313
C        4.95227623       2.86145997      10.03107727      -0.00241265       0.00210622       0.00322042      -8.82553236
C        4.92179667       4.30827014      10.04747985      -0.00923826       0.00433657       0.00549462      -9.03511049
N        6.06502264       5.03326665      10.13117909      -0.00267720       0.00775380      -0.01373050      -7.90440917
C        6.08105924       6.37700863      10.06204191      -0.00098643       0.01243024       0.00039896      -9.00356002
C        7.33628990       7.08074164      10.09148454       0.00406680       0.00766203      -0.00129064      -8.93667257
C        7.34976813       8.49938498      10.00956552       0.00308844      -0.00093964      -0.00628082      -9.07199182
C        8.58535514       9.22400900       9.98849948      -0.00672010      -0.00249200      -0.00438205      -9.07286231
C        4.90117043      -0.00878756       9.95742729       0.00801378       0.00559371       0.00534545      -9.07804929
C        6.13917598       0.69006980       9.96241162       0.00362073       0.00943212       0.00668047      -9.03268559
C        6.18984640       2.11100680      10.03824198       0.00042117       0.00754288       0.00367388      -9.03345525
N        7.38968251       2.73883709      10.12022593       0.00051133      -0.00619465      -0.00524077      -7.90459305
C        8.72263552       5.03555684      10.55252984       0.00066313       0.00719371      -0.00026649      -8.58230188
C        8.57988071       6.37907675      10.17404581       0.00083551       0.00604027       0.00034292      -9.07775073
C        9.80928534       7.09116397      10.00872104       0.00293544      -0.00418662       0.00000930      -9.01312383
C        9.81234183       8.51281690       9.96857503      -0.00664091      -0.00058147      -0.00112874      -9.08563079
C       11.04494284       9.22122110       9.94961093      -0.00983788       0.00685566      -0.00185169      -9.08740182
C        7.35901982      -0.02750381       9.94400155       0.00148258       0.00460844       0.00779838      -9.12673995
C        8.58949757       0.67294427       9.95300913      -0.00065556       0.00738773       0.00771578      -9.04544419
C        8.56139157       2.08084029      10.04330045       0.00390339       0.00461280       0.00503761      -8.99956536
C        9.79866435       2.81592084      10.07374705      -0.00095055       0.00680608       0.00382935      -8.93629650
C        9.81316316       4.24311732      10.16438704       0.00260679       0.00707984       0.00501682      -9.07625750
C       11.04378717       4.95377313      10.00241326       0.00619618      -0.00963399       0.00260623      -9.01219691
C       11.03343368       6.37314921       9.97993471      -0.00016294      -0.01334794       0.00304767      -9.11312413
C       12.26634938       7.08461790       9.95215009      -0.00617304      -0.00624104      -0.00082572      -9.07787248
C       12.27144809       8.50414379       9.94464634      -0.00975902      -0.00126160       0.00271858      -9.09973499
C       13.50221301       9.20881916       9.93747137       0.00286693      -0.00459130       0.00155799      -9.09199294
C        9.82466018      -0.01887644       9.94409929      -0.01085445      -0.00187797       0.00804817      -9.08646895
C       11.04927826       0.69612364       9.96322521      -0.00534465      -0.01408076       0.00331562      -9.09740344
C       11.03403266       2.11940369       9.99217624      -0.00999412      -0.00894804       0.01141234      -9.07334712
C       12.27900871       2.82684300       9.97683748      -0.00607411       0.00054338       0.00699313      -9.07383861
C       12.27645443       4.24511116       9.96198755       0.00578913       0.00117517       0.00156232      -9.08514844
C       13.50645562       4.95811977       9.95214783       0.00259722       0.00521402      -0.00181281      -9.08727035
C       13.49817652       6.37885599       9.94987744       0.00367019       0.00587696      -0.00873112      -9.09930129
C       14.72369537       7.09310245       9.94697195       0.00853628      -0.00541064      -0.00637144      -9.09114638
C       14.73324035       8.50915461       9.93838850       0.01094815      -0.00562930      -0.00268182      -9.09975274
C       15.96367483       9.21917666       9.94071898       0.00492570       0.00153467      -0.00119884      -9.10143703
Pd       7.34629728       4.23630152      11.70164446       0.00593257      -0.04281189      -0.01048815       6.02016449
H        7.56117335       5.10774229      13.02073074      -0.01845950       0.03312635       0.02103093      -9.41068029
H        8.23653833       3.90210852      12.98965266       0.00406037       0.00443870      -0.01234758      -9.41605449
