52
Lattice="12.3 0.0 0.0 6.15 10.652112466548596 0.0 0.0 0.0 20.0" Properties=species:S:1:pos:R:3:forces:R:3:energies:R:1 energy=-455.2254943847656 stress="0.0009574828436598182 0.00011762927897507325 -3.1206541279971134e-06 0.00011762927897507325 0.0010951572330668569 3.3580445233383216e-06 -3.1206541279971134e-06 3.3580445233383216e-06 -1.5483742572541814e-06" free_energy=-455.2254943847656 pbc="T T F"
C       -0.01795178       0.00737834      10.00691864      -0.02263009       0.00554117       0.00544601      -9.10066813
C        1.20827265       0.72194321      10.01455547      -0.00891431       0.00141603      -0.01299909      -9.09772132
C        1.21367824       2.14148382      10.00758613      -0.01468353      -0.00251930       0.00444037      -9.10022341
C        2.43754456       2.86166050       9.99566471       0.00295459      -0.00541692       0.01522647      -9.10013001
C        2.42076489       4.27929229       9.97919929      -0.00064514      -0.00502564      -0.00263801      -9.08715773
C        3.63125829       5.00907007       9.96698237       0.00660543      -0.01223459       0.00429811      -9.04368135
C        3.63257306       6.42316582       9.96117270       0.00873590      -0.00571593      -0.00987338      -9.12889393
C        4.85676693       7.13162579       9.96806166       0.00969835      -0.01208685      -0.00560700      -9.04413393
C        4.88375664       8.54483652       9.97975919      -0.00697684       0.00148999      -0.01258134      -9.08683448
C        6.11947427       9.23968872       9.99802621       0.00182228      -0.00698611       0.00578574      -9.10108811
C        2.43650434       0.01224262      10.01550814      -0.00013470       0.00102644      -0.00738882      -9.08990876
C        3.66670002       0.73358335      10.01314257       0.01897599       0.01230398      -0.00605216      -9.07281631
C        3.68043869       2.16709016      10.01434738       0.01918535       0.01980525       0.00393786      -9.06704320
C        4.90470035       2.89317862      10.05797854       0.01371486       0.02024981       0.02723711      -8.93535588
C        4.87114472       4.33417239      10.00320975       0.00789949       0.00248183       0.01287457      -9.01346172
N        6.02049440       5.04329300       9.95584654      -0.00705385      -0.00156462       0.04255441      -7.77785403
C        6.06042115       6.39471559      10.00372896       0.00127444      -0.00964251       0.01137735      -9.00674868
C        7.32478137       7.08703746      10.06201729      -0.00530136      -0.02910978       0.02350499      -8.94147873
C        7.34137115       8.51009873      10.01987071      -0.00910781      -0.02670155      -0.00318761      -9.06769952
C        8.57610392       9.23827088      10.01852619       0.00549855      -0.01779830      -0.01610327      -9.07237859
C        4.89295984       0.02265002      10.00366585       0.00241728       0.00236270      -0.00958210      -9.08075407
C        6.12528414       0.73935562      10.02368635       0.00109625      -0.00831145       0.02779836      -9.01172559
C        6.14199529       2.17168037      10.14062242      -0.01068472       0.00100125       0.00063251      -9.08018726
C        7.38614326       2.74178010      10.46736830       0.00955622      -0.01320642      -0.00832602      -8.56852478
C        8.69887746       5.01330847      10.46274169       0.01513571      -0.00615783      -0.02003431      -8.56271058
C        8.56812349       6.37822211      10.14925903       0.00035390       0.00194948      -0.00629464      -9.07398663
C        9.80097328       7.10674992      10.03671660       0.02066166       0.00650600       0.00935192      -9.01223843
C        9.80491967       8.53141997      10.01177231       0.00797231       0.00938423      -0.02338736      -9.08205852
C       11.03702250       9.24871860      10.00227492      -0.01064331       0.01523183      -0.03166268      -9.07655098
C        7.35033039       0.02446232      10.01116005       0.00778092       0.01539071      -0.00426526      -9.11741292
C        8.58918657       0.71765546      10.03360457       0.00349973       0.01926509       0.01631947      -9.04099765
C        8.60983044       2.12883477      10.20093438       0.02959289       0.01792222      -0.00562760      -9.05704242
C        9.84347449       2.83650140      10.15922769       0.01470077       0.00204721       0.00594732      -9.02730536
C        9.84068135       4.25799489      10.21243564       0.00044590      -0.02467832      -0.01296201      -9.05297299
C       11.05268978       4.98258063      10.05085507      -0.00187463      -0.00804873       0.00901229      -9.03844051
C       11.03138351       6.40139270      10.02696527       0.00188325      -0.00360160      -0.01673827      -9.11934121
C       12.26098914       7.11751809      10.00143523      -0.01575095       0.02245516      -0.01662368      -9.07928695
C       12.26712479       8.53815220       9.99828355      -0.02405037       0.02643443       0.00564690      -9.09951104
C       13.49475536       9.25385382       9.99283485      -0.02786192       0.01543034      -0.00773201      -9.07997179
C        9.82003096       0.01173514      10.00017991      -0.00300231       0.01670537      -0.00142577      -9.09007421
C       11.05360632       0.71367402      10.01577749      -0.01508155       0.02144889       0.00509387      -9.08700970
C       11.05729447       2.13604050      10.05107910      -0.01132095       0.00204543      -0.00472931      -9.11280645
C       12.28728815       2.85131035      10.02166149      -0.01779849      -0.00364174      -0.00115871      -9.08584060
C       12.27834914       4.27053926      10.01208115      -0.01097670      -0.01632815      -0.00508683      -9.09208558
C       13.49661742       4.98996729       9.98713699      -0.01213299      -0.00157497      -0.01970669      -9.09360191
C       13.48853526       6.40963438       9.98560210      -0.00903049       0.01355597      -0.00445178      -9.10451290
C       14.70826167       7.12968661       9.97098930       0.00027923      -0.00331030       0.01875531      -9.09119214
C       14.72224162       8.54563643       9.97954301      -0.01678327       0.01154990       0.00277118      -9.10417272
C       15.95588839       9.24907731       9.98079055      -0.01213167       0.00939459      -0.01977299      -9.09368986
Pd       7.22901330       4.35411329      11.64557159       0.01268405      -0.01320736       0.00347769       6.73207903
H        8.04026478       4.18694510      12.76072481       0.01340157      -0.03175110       0.03226137      -9.83938932
H        8.31407543       3.48649374      12.61684032       0.03674564      -0.02577436       0.00224769      -9.96708798
