52
Lattice="12.3 0.0 0.0 6.15 10.652112466548596 0.0 0.0 0.0 20.0" Properties=species:S:1:pos:R:3:forces:R:3:energies:R:1 energy=-454.1164245605469 stress="0.001150350901298225 9.730042074806988e-05 -4.809949700756988e-07 9.730042074806988e-05 0.0010380629682913423 6.827413017163053e-07 -4.809949700756988e-07 6.827413017163053e-07 2.0127288280491484e-06" free_energy=-454.1164245605469 pbc="T T F"
C       -0.01403665      -0.00722859       9.96520521       0.03602781       0.01721254       0.00901131      -9.09458750
C        1.21740809       0.70166586       9.97603425       0.00731869       0.03695552      -0.01487096      -9.09516075
C        1.22295006       2.12132868       9.97021460      -0.00168512       0.02559761      -0.00017305      -9.08650026
C        2.46067613       2.83579454       9.96405434       0.00921874      -0.00865551       0.01446643      -9.08335556
C        2.44483057       4.25271228       9.95229328      -0.00606526      -0.01704551       0.00574776      -9.07806201
C        3.66938072       4.97512522       9.95969089      -0.02515943       0.01110543       0.01617397      -9.03381461
C        3.65805986       6.39034528       9.94912716      -0.02222943       0.00853455      -0.00450163      -9.12810150
C        4.87730123       7.10777218       9.96543205      -0.01613649       0.00425375       0.01242871      -9.05013974
C        4.89614184       8.52144861       9.95227367       0.01058599       0.01501975      -0.01445666      -9.08734758
C        6.12787017       9.22447221       9.97150800       0.00994668       0.01665951       0.00881814      -9.09677103
C        2.45045136      -0.00225492       9.97782228      -0.01812300       0.00882781      -0.02087162      -9.08745721
C        3.68698403       0.71357937       9.96549107      -0.00915055      -0.00749996       0.00370324      -9.08342302
C        3.71595692       2.14580885       9.97374538       0.00575349      -0.01047204       0.02455237      -9.03423530
C        4.95868728       2.86297682      10.01204203      -0.00682431       0.00888681       0.01995172      -8.83401146
C        4.92528364       4.31113882      10.02891118      -0.02425541       0.00445694      -0.00020227      -9.02219638
N        6.06992124       5.04025419      10.10614144       0.01508254      -0.02582631       0.00691962      -7.92911157
C        6.08376000       6.38458577      10.05810290      -0.02317023      -0.01948829      -0.00510907      -8.99634273
C        7.34027605       7.08621407      10.09215233      -0.02661420      -0.01847237       0.00398110      -8.93358550
C        7.35489603       8.50267771      10.01096487      -0.01924105      -0.00175363       0.00118702      -9.07631540
C        8.59090283       9.22525059       9.99190463      -0.02268455      -0.00958617      -0.01914774      -9.07446550
C        4.90552786      -0.00953918       9.94631010      -0.00754236       0.01343548       0.02717909      -9.07803515
C        6.14232591       0.69040409       9.95189270       0.01700023      -0.01583347       0.01972988      -9.03447214
C        6.19555791       2.10997545      10.02812802      -0.01254197      -0.00957105      -0.01291011      -9.02112728
N        7.39901582       2.73755366      10.10988600      -0.02269228       0.00933981      -0.02487361      -7.93214712
C        8.72031591       5.03548548      10.54695579       0.01268357       0.00633496      -0.01423723      -8.63892221
C        8.58106702       6.38135062      10.17979051       0.00328314      -0.00703130      -0.02006444      -9.07773544
C        9.81250526       7.09135848      10.02052560       0.01070065      -0.01258391      -0.00252245      -9.01483916
C        9.81726608       8.51288561       9.97631142      -0.01540179      -0.00059645      -0.02287321      -9.08637987
C       11.04962342       9.22028097       9.94733596      -0.01791323       0.01256955       0.00491485      -9.08780488
C        7.36193243      -0.02688534       9.93738541       0.01794781      -0.01956778       0.01700687      -9.12809646
C        8.59229290       0.67109611       9.95553893       0.01449463      -0.01095291       0.01467612      -9.04983878
C        8.56971148       2.07735673      10.05348500      -0.02227746      -0.00931394      -0.00732902      -8.99668389
C        9.80510981       2.81467085      10.08476219      -0.01868911      -0.00819555      -0.00252241      -8.93409150
C        9.81489767       4.24126805      10.17745666       0.01295580       0.01226823      -0.01701270      -9.07901171
C       11.04609822       4.95261256      10.02059324       0.01730876      -0.00176785      -0.01769808      -9.01374335
C       11.03531401       6.37154163       9.99371149       0.02999531       0.00222717       0.00150268      -9.11632012
C       12.26862903       7.08214656       9.95620557       0.01564660       0.02442569      -0.00417192      -9.07733861
C       12.27515903       8.50192237       9.94153468      -0.00955959       0.02630211      -0.00026605      -9.09917802
C       13.50515554       9.20849679       9.92847004       0.01246306      -0.01453413       0.00698763      -9.08976272
C        9.82658258      -0.01878386       9.94406723       0.01853440      -0.00823585      -0.00981010      -9.08637151
C       11.05144400       0.69667078       9.96084015       0.01961813      -0.02749202       0.02848644      -9.09634411
C       11.03930477       2.11970959       9.99664935      -0.00680874      -0.03212345       0.03418759      -9.07703580
C       12.28396407       2.82633069       9.98052601      -0.02017284       0.00000140       0.00990503      -9.07403387
C       12.27965317       4.24462766       9.97498106       0.00981293      -0.00357190      -0.03225503      -9.08523245
C       13.50949913       4.95704855       9.95318039       0.00313816       0.00990437      -0.00305666      -9.08824633
C       13.50099003       6.37735295       9.94817594       0.01404396       0.01707913      -0.00654740      -9.09927092
C       14.72713984       7.09142137       9.93742903       0.00098411       0.01979546      -0.00803289      -9.08892007
C       14.73608944       8.50810356       9.92784203       0.01468100       0.00424533       0.02303318      -9.09853207
C       15.96640008       9.21918591       9.93404473       0.01044235       0.00202469      -0.00070353      -9.09975514
Pd       7.29024775       4.21246126      11.65529996       0.03532839      -0.01472127       0.00666030       5.64419508
H        7.37654275       5.30039792      12.83270222       0.00394494       0.00310533      -0.04006262      -9.20435882
H        8.29395012       3.72933529      12.81079603      -0.01400284      -0.00567709       0.00507118      -9.20223832
