52
Lattice="12.3 0.0 0.0 6.15 10.652112466548596 0.0 0.0 0.0 20.0" Properties=species:S:1:pos:R:3:forces:R:3:energies:R:1 energy=-452.8796081542969 stress="0.0010623083217069507 6.456698287138352e-09 -7.370932197936497e-10 6.456698287138352e-09 0.0010975326877087355 -1.426370090484852e-06 -7.370932197936497e-10 -1.426370090484852e-06 2.6316754428989952e-06" free_energy=-452.8796081542969 pbc="T T F"
C        0.00139096       0.02512594       9.99309266      -0.01363105      -0.01339026      -0.00691951      -9.08631018
C        1.23012760       0.73597001       9.99877956       0.00009451      -0.03081570      -0.00899376      -9.09760188
C        1.23012523       2.15566900       9.99575597       0.00014003      -0.01185044       0.00356222      -9.08848807
C        2.46560910       2.86714979       9.99650626      -0.00188089       0.00472842       0.00027998      -9.08916484
C        2.45619767       4.28541960       9.97521786       0.00826811       0.00295717       0.00100230      -9.08345683
C        3.67508006       5.00724494       9.97931664       0.00582541       0.00499808       0.01343508      -9.04376240
C        3.67992330       6.42181442       9.96387639       0.01911184       0.00640902      -0.00613393      -9.13414231
C        4.90511028       7.13160407       9.97190891       0.00454012       0.01250535       0.00966560      -9.03483509
C        4.92022721       8.54907625       9.96727199      -0.00754758       0.00980183       0.00886910      -9.08360878
C        6.15279054       9.24970385       9.98668208      -0.00872008      -0.01701516      -0.00174898      -9.08499549
C        2.45886600       0.02512185       9.99310363       0.01384415      -0.01327042      -0.00697602      -9.08630137
C        3.69337663       0.73929233       9.99635541       0.00216066       0.01413748       0.00819151      -9.08441503
C        3.71309481       2.16988030      10.01536429      -0.00950006       0.01060154      -0.01089974      -9.05199358
C        4.94958255       2.88483874      10.06155441      -0.00690874      -0.01315330      -0.00343320      -8.83283803
C        4.91809854       4.33198751      10.05770267      -0.01886618      -0.01667580       0.01150574      -9.01271936
N        6.06006716       5.04211049      10.14155927      -0.03180707      -0.01163968       0.00248900      -7.93932122
C        6.11131613       6.38922348      10.04655389      -0.01167789      -0.00538737       0.02449192      -9.04789908
C        7.38013597       7.08587426      10.03200942      -0.00001795      -0.01932681       0.01378588      -8.84447128
C        7.38013072       8.51473400       9.99806804       0.00010504      -0.01394391      -0.00155906      -9.04898679
C        8.60747329       9.24969954       9.98669023       0.00880089      -0.01697148      -0.00181940      -9.08499637
C        4.91681217       0.02058982       9.98334033       0.00102068       0.02670405       0.00062964      -9.08389205
C        6.14909163       0.72059246      10.00598483       0.00154500       0.01056895      -0.00388566      -9.03582984
C        6.17891524       2.13628613      10.09472917      -0.00131831       0.00280353       0.00110650      -9.02635255
N        7.38013829       2.74305647      10.26501354      -0.00015351      -0.01041484      -0.03335652      -7.91714263
N        8.70020698       5.04210852      10.14156832       0.03174096      -0.01151332       0.00247875      -7.93932629
C        8.64895648       6.38922121      10.04655035       0.01175442      -0.00536146       0.02453034      -9.04789683
C        9.85516607       7.13159986       9.97189906      -0.00465379       0.01267957       0.00966232      -9.03483301
C        9.84004238       8.54907299       9.96726815       0.00776484       0.00988188       0.00890680      -9.08359185
C       11.06911970       9.25601333       9.96698089       0.00322273       0.01776474      -0.01854968      -9.09897466
C        7.38013856       0.01762462       9.99178853       0.00007993       0.02167455      -0.02226553      -9.13839422
C        8.61118726       0.72059264      10.00598828      -0.00192675       0.01059206      -0.00389655      -9.03583302
C        8.58135836       2.13628476      10.09473331       0.00133790       0.00286749       0.00103849      -9.02636342
C        9.81068412       2.88484166      10.06154762       0.00690484      -0.01314761      -0.00337172      -8.83283934
C        9.84217527       4.33198893      10.05770081       0.01877317      -0.01669332       0.01149356      -9.01272751
C       11.08519300       5.00724606       9.97930511      -0.00582497       0.00516960       0.01345205      -9.04376213
C       11.08035762       6.42181791       9.96386244      -0.01915241       0.00627322      -0.00608916      -9.13413565
C       12.30596848       7.13049667       9.95171855      -0.00411899      -0.01259875       0.00928720      -9.09099206
C       12.30056874       8.54680228       9.95795420      -0.00252392       0.00411166       0.00158592      -9.09813656
C       13.53014437       9.25297811       9.96480262      -0.00026770       0.01013146       0.01324947      -9.08503035
C        9.84345684       0.02059054       9.98333878      -0.00078627       0.02669707       0.00064413      -9.08390254
C       11.06688745       0.73929642       9.99634749      -0.00226403       0.01410764       0.00817331      -9.08441925
C       11.04716392       2.16988239      10.01535578       0.00964262       0.01060619      -0.01088113      -9.05200690
C       12.29464498       2.86715091       9.99650284       0.00210282       0.00480138       0.00024568      -9.08916974
C       12.30406926       4.28542093       9.97521071      -0.00811058       0.00294327       0.00100872      -9.08345267
C       13.53013698       4.99650400       9.96410795      -0.00010592      -0.02623402      -0.02928846      -9.09708107
C       13.53014133       6.41817986       9.95079213       0.00007019      -0.02899708       0.02136667      -9.09840004
C       14.75431848       7.13049670       9.95172577       0.00380468      -0.01266202       0.00928954      -9.09098622
C       14.75971424       8.54680232       9.95795920       0.00262909       0.00406541       0.00158846      -9.09814459
C       15.99116066       9.25601578       9.96698446      -0.00356178       0.01774553      -0.01856683      -9.09898214
Pd       7.38012876       4.37296165      11.66356047       0.00004049      -0.00150260       0.03540310       6.07326460
H        6.42539399       3.60872534      12.70195883      -0.02889152       0.01712129      -0.03687831      -9.22508454
H        8.33484925       3.60872918      12.70197489       0.02889308       0.01711481      -0.03690563      -9.22508669
