     200
 i =        1, E =         0.0000000000
  C         0.0000000000        0.0000000000       10.0000000000
  C         1.2300000000        0.7101408300       10.0000000000
  C        -1.2300000000        2.1304224900       10.0000000000
  C         0.0000000000        2.8405633200       10.0000000000
  C        -2.4600000000        4.2608449900       10.0000000000
  C        -1.2300000000        4.9709858200       10.0000000000
  C        -3.6900000000        6.3912674800       10.0000000000
  C        -2.4600000000        7.1014083100       10.0000000000
  C        -4.9200000000        8.5216899700       10.0000000000
  C        -3.6900000000        9.2318308000       10.0000000000
  C        -6.1500000000       10.6521124700       10.0000000000
  C        -4.9200000000       11.3622533000       10.0000000000
  C        -7.3800000000       12.7825349600       10.0000000000
  C        -6.1500000000       13.4926757900       10.0000000000
  C        -8.6100000000       14.9129574500       10.0000000000
  C        -7.3800000000       15.6230982800       10.0000000000
  C        -9.8400000000       17.0433799500       10.0000000000
  C        -8.6100000000       17.7535207800       10.0000000000
  C       -11.0700000000       19.1738024400       10.0000000000
  C        -9.8400000000       19.8839432700       10.0000000000
  C         2.4600000000        0.0000000000       10.0000000000
  C         3.6900000000        0.7101408300       10.0000000000
  C         1.2300000000        2.1304224900       10.0000000000
  C         2.4600000000        2.8405633200       10.0000000000
  C         0.0000000000        4.2608449900       10.0000000000
  C         1.2300000000        4.9709858200       10.0000000000
  C        -1.2300000000        6.3912674800       10.0000000000
  C         0.0000000000        7.1014083100       10.0000000000
  C        -2.4600000000        8.5216899700       10.0000000000
  C        -1.2300000000        9.2318308000       10.0000000000
  C        -3.6900000000       10.6521124700       10.0000000000
  C        -2.4600000000       11.3622533000       10.0000000000
  C        -4.9200000000       12.7825349600       10.0000000000
  C        -3.6900000000       13.4926757900       10.0000000000
  C        -6.1500000000       14.9129574500       10.0000000000
  C        -4.9200000000       15.6230982800       10.0000000000
  C        -7.3800000000       17.0433799500       10.0000000000
  C        -6.1500000000       17.7535207800       10.0000000000
  C        -8.6100000000       19.1738024400       10.0000000000
  C        -7.3800000000       19.8839432700       10.0000000000
  C         4.9200000000        0.0000000000       10.0000000000
  C         6.1500000000        0.7101408300       10.0000000000
  C         3.6900000000        2.1304224900       10.0000000000
  C         4.9200000000        2.8405633200       10.0000000000
  C         2.4600000000        4.2608449900       10.0000000000
  C         3.6900000000        4.9709858200       10.0000000000
  C         1.2300000000        6.3912674800       10.0000000000
  C         2.4600000000        7.1014083100       10.0000000000
  C         0.0000000000        8.5216899700       10.0000000000
  C         1.2300000000        9.2318308000       10.0000000000
  C        -1.2300000000       10.6521124700       10.0000000000
  C         0.0000000000       11.3622533000       10.0000000000
  C        -2.4600000000       12.7825349600       10.0000000000
  C        -1.2300000000       13.4926757900       10.0000000000
  C        -3.6900000000       14.9129574500       10.0000000000
  C        -2.4600000000       15.6230982800       10.0000000000
  C        -4.9200000000       17.0433799500       10.0000000000
  C        -3.6900000000       17.7535207800       10.0000000000
  C        -6.1500000000       19.1738024400       10.0000000000
  C        -4.9200000000       19.8839432700       10.0000000000
  C         7.3800000000        0.0000000000       10.0000000000
  C         8.6100000000        0.7101408300       10.0000000000
  C         6.1500000000        2.1304224900       10.0000000000
  C         7.3800000000        2.8405633200       10.0000000000
  C         4.9200000000        4.2608449900       10.0000000000
  C         6.1500000000        4.9709858200       10.0000000000
  C         3.6900000000        6.3912674800       10.0000000000
  C         4.9200000000        7.1014083100       10.0000000000
  C         2.4600000000        8.5216899700       10.0000000000
  C         3.6900000000        9.2318308000       10.0000000000
  C         1.2300000000       10.6521124700       10.0000000000
  C         2.4600000000       11.3622533000       10.0000000000
  C         0.0000000000       12.7825349600       10.0000000000
  C         1.2300000000       13.4926757900       10.0000000000
  C        -1.2300000000       14.9129574500       10.0000000000
  C         0.0000000000       15.6230982800       10.0000000000
  C        -2.4600000000       17.0433799500       10.0000000000
  C        -1.2300000000       17.7535207800       10.0000000000
  C        -3.6900000000       19.1738024400       10.0000000000
  C        -2.4600000000       19.8839432700       10.0000000000
  C         9.8400000000        0.0000000000       10.0000000000
  C        11.0700000000        0.7101408300       10.0000000000
  C         8.6100000000        2.1304224900       10.0000000000
  C         9.8400000000        2.8405633200       10.0000000000
  C         7.3800000000        4.2608449900       10.0000000000
  C         8.6100000000        4.9709858200       10.0000000000
  C         6.1500000000        6.3912674800       10.0000000000
  C         7.3800000000        7.1014083100       10.0000000000
  C         4.9200000000        8.5216899700       10.0000000000
  C         6.1500000000        9.2318308000       10.0000000000
  C         3.6900000000       10.6521124700       10.0000000000
  C         4.9200000000       11.3622533000       10.0000000000
  C         2.4600000000       12.7825349600       10.0000000000
  C         3.6900000000       13.4926757900       10.0000000000
  C         1.2300000000       14.9129574500       10.0000000000
  C         2.4600000000       15.6230982800       10.0000000000
  C         0.0000000000       17.0433799500       10.0000000000
  C         1.2300000000       17.7535207800       10.0000000000
  C        -1.2300000000       19.1738024400       10.0000000000
  C         0.0000000000       19.8839432700       10.0000000000
  C        12.3000000000        0.0000000000       10.0000000000
  C        13.5300000000        0.7101408300       10.0000000000
  C        11.0700000000        2.1304224900       10.0000000000
  C        12.3000000000        2.8405633200       10.0000000000
  C         9.8400000000        4.2608449900       10.0000000000
  C        11.0700000000        4.9709858200       10.0000000000
  C         8.6100000000        6.3912674800       10.0000000000
  C         9.8400000000        7.1014083100       10.0000000000
  C         7.3800000000        8.5216899700       10.0000000000
  C         8.6100000000        9.2318308000       10.0000000000
  C         6.1500000000       10.6521124700       10.0000000000
  C         7.3800000000       11.3622533000       10.0000000000
  C         4.9200000000       12.7825349600       10.0000000000
  C         6.1500000000       13.4926757900       10.0000000000
  C         3.6900000000       14.9129574500       10.0000000000
  C         4.9200000000       15.6230982800       10.0000000000
  C         2.4600000000       17.0433799500       10.0000000000
  C         3.6900000000       17.7535207800       10.0000000000
  C         1.2300000000       19.1738024400       10.0000000000
  C         2.4600000000       19.8839432700       10.0000000000
  C        14.7600000000        0.0000000000       10.0000000000
  C        15.9900000000        0.7101408300       10.0000000000
  C        13.5300000000        2.1304224900       10.0000000000
  C        14.7600000000        2.8405633200       10.0000000000
  C        12.3000000000        4.2608449900       10.0000000000
  C        13.5300000000        4.9709858200       10.0000000000
  C        11.0700000000        6.3912674800       10.0000000000
  C        12.3000000000        7.1014083100       10.0000000000
  C         9.8400000000        8.5216899700       10.0000000000
  C        11.0700000000        9.2318308000       10.0000000000
  C         8.6100000000       10.6521124700       10.0000000000
  C         9.8400000000       11.3622533000       10.0000000000
  C         7.3800000000       12.7825349600       10.0000000000
  C         8.6100000000       13.4926757900       10.0000000000
  C         6.1500000000       14.9129574500       10.0000000000
  C         7.3800000000       15.6230982800       10.0000000000
  C         4.9200000000       17.0433799500       10.0000000000
  C         6.1500000000       17.7535207800       10.0000000000
  C         3.6900000000       19.1738024400       10.0000000000
  C         4.9200000000       19.8839432700       10.0000000000
  C        17.2200000000        0.0000000000       10.0000000000
  C        18.4500000000        0.7101408300       10.0000000000
  C        15.9900000000        2.1304224900       10.0000000000
  C        17.2200000000        2.8405633200       10.0000000000
  C        14.7600000000        4.2608449900       10.0000000000
  C        15.9900000000        4.9709858200       10.0000000000
  C        13.5300000000        6.3912674800       10.0000000000
  C        14.7600000000        7.1014083100       10.0000000000
  C        12.3000000000        8.5216899700       10.0000000000
  C        13.5300000000        9.2318308000       10.0000000000
  C        11.0700000000       10.6521124700       10.0000000000
  C        12.3000000000       11.3622533000       10.0000000000
  C         9.8400000000       12.7825349600       10.0000000000
  C        11.0700000000       13.4926757900       10.0000000000
  C         8.6100000000       14.9129574500       10.0000000000
  C         9.8400000000       15.6230982800       10.0000000000
  C         7.3800000000       17.0433799500       10.0000000000
  C         8.6100000000       17.7535207800       10.0000000000
  C         6.1500000000       19.1738024400       10.0000000000
  C         7.3800000000       19.8839432700       10.0000000000
  C        19.6800000000        0.0000000000       10.0000000000
  C        20.9100000000        0.7101408300       10.0000000000
  C        18.4500000000        2.1304224900       10.0000000000
  C        19.6800000000        2.8405633200       10.0000000000
  C        17.2200000000        4.2608449900       10.0000000000
  C        18.4500000000        4.9709858200       10.0000000000
  C        15.9900000000        6.3912674800       10.0000000000
  C        17.2200000000        7.1014083100       10.0000000000
  C        14.7600000000        8.5216899700       10.0000000000
  C        15.9900000000        9.2318308000       10.0000000000
  C        13.5300000000       10.6521124700       10.0000000000
  C        14.7600000000       11.3622533000       10.0000000000
  C        12.3000000000       12.7825349600       10.0000000000
  C        13.5300000000       13.4926757900       10.0000000000
  C        11.0700000000       14.9129574500       10.0000000000
  C        12.3000000000       15.6230982800       10.0000000000
  C         9.8400000000       17.0433799500       10.0000000000
  C        11.0700000000       17.7535207800       10.0000000000
  C         8.6100000000       19.1738024400       10.0000000000
  C         9.8400000000       19.8839432700       10.0000000000
  C        22.1400000000        0.0000000000       10.0000000000
  C        23.3700000000        0.7101408300       10.0000000000
  C        20.9100000000        2.1304224900       10.0000000000
  C        22.1400000000        2.8405633200       10.0000000000
  C        19.6800000000        4.2608449900       10.0000000000
  C        20.9100000000        4.9709858200       10.0000000000
  C        18.4500000000        6.3912674800       10.0000000000
  C        19.6800000000        7.1014083100       10.0000000000
  C        17.2200000000        8.5216899700       10.0000000000
  C        18.4500000000        9.2318308000       10.0000000000
  C        15.9900000000       10.6521124700       10.0000000000
  C        17.2200000000       11.3622533000       10.0000000000
  C        14.7600000000       12.7825349600       10.0000000000
  C        15.9900000000       13.4926757900       10.0000000000
  C        13.5300000000       14.9129574500       10.0000000000
  C        14.7600000000       15.6230982800       10.0000000000
  C        12.3000000000       17.0433799500       10.0000000000
  C        13.5300000000       17.7535207800       10.0000000000
  C        11.0700000000       19.1738024400       10.0000000000
  C        12.3000000000       19.8839432700       10.0000000000
     200
 i =        2, E =         0.0000000000
  C         0.0000000000        0.0000000000       10.0000000000
  C         1.2300000000        0.7101408300       10.0000000000
  C        -1.2300000000        2.1304224900       10.0000000000
  C         0.0000000000        2.8405633200       10.0000000000
  C        -2.4600000000        4.2608449900       10.0000000000
  C        -1.2300000000        4.9709858200       10.0000000000
  C        -3.6900000000        6.3912674800       10.0000000000
  C        -2.4600000000        7.1014083100       10.0000000000
  C        -4.9200000000        8.5216899700       10.0000000000
  C        -3.6900000000        9.2318308000       10.0000000000
  C        -6.1500000000       10.6521124700       10.0000000000
  C        -4.9200000000       11.3622533000       10.0000000000
  C        -7.3800000000       12.7825349600       10.0000000000
  C        -6.1500000000       13.4926757900       10.0000000000
  C        -8.6100000000       14.9129574500       10.0000000000
  C        -7.3800000000       15.6230982800       10.0000000000
  C        -9.8400000000       17.0433799500       10.0000000000
  C        -8.6100000000       17.7535207800       10.0000000000
  C       -11.0700000000       19.1738024400       10.0000000000
  C        -9.8400000000       19.8839432700       10.0000000000
  C         2.4600000000        0.0000000000       10.0000000000
  C         3.6900000000        0.7101408300       10.0000000000
  C         1.2300000000        2.1304224900       10.0000000000
  C         2.4600000000        2.8405633200       10.0000000000
  C         0.0000000000        4.2608449900       10.0000000000
  C         1.2300000000        4.9709858200       10.0000000000
  C        -1.2300000000        6.3912674800       10.0000000000
  C         0.0000000000        7.1014083100       10.0000000000
  C        -2.4600000000        8.5216899700       10.0000000000
  C        -1.2300000000        9.2318308000       10.0000000000
  C        -3.6900000000       10.6521124700       10.0000000000
  C        -2.4600000000       11.3622533000       10.0000000000
  C        -4.9200000000       12.7825349600       10.0000000000
  C        -3.6900000000       13.4926757900       10.0000000000
  C        -6.1500000000       14.9129574500       10.0000000000
  C        -4.9200000000       15.6230982800       10.0000000000
  C        -7.3800000000       17.0433799500       10.0000000000
  C        -6.1500000000       17.7535207800       10.0000000000
  C        -8.6100000000       19.1738024400       10.0000000000
  C        -7.3800000000       19.8839432700       10.0000000000
  C         4.9200000000        0.0000000000       10.0000000000
  C         6.1500000000        0.7101408300       10.0000000000
  C         3.6900000000        2.1304224900       10.0000000000
  C         4.9200000000        2.8405633200       10.0000000000
  C         2.4600000000        4.2608449900       10.0000000000
  C         3.6900000000        4.9709858200       10.0000000000
  C         1.2300000000        6.3912674800       10.0000000000
  C         2.4600000000        7.1014083100       10.0000000000
  C         0.0000000000        8.5216899700       10.0000000000
  C         1.2300000000        9.2318308000       10.0000000000
  C        -1.2300000000       10.6521124700       10.0000000000
  C         0.0000000000       11.3622533000       10.0000000000
  C        -2.4600000000       12.7825349600       10.0000000000
  C        -1.2300000000       13.4926757900       10.0000000000
  C        -3.6900000000       14.9129574500       10.0000000000
  C        -2.4600000000       15.6230982800       10.0000000000
  C        -4.9200000000       17.0433799500       10.0000000000
  C        -3.6900000000       17.7535207800       10.0000000000
  C        -6.1500000000       19.1738024400       10.0000000000
  C        -4.9200000000       19.8839432700       10.0000000000
  C         7.3800000000        0.0000000000       10.0000000000
  C         8.6100000000        0.7101408300       10.0000000000
  C         6.1500000000        2.1304224900       10.0000000000
  C         7.3800000000        2.8405633200       10.0000000000
  C         4.9200000000        4.2608449900       10.0000000000
  C         6.1500000000        4.9709858200       10.0000000000
  C         3.6900000000        6.3912674800       10.0000000000
  C         4.9200000000        7.1014083100       10.0000000000
  C         2.4600000000        8.5216899700       10.0000000000
  C         3.6900000000        9.2318308000       10.0000000000
  C         1.2300000000       10.6521124700       10.0000000000
  C         2.4600000000       11.3622533000       10.0000000000
  C         0.0000000000       12.7825349600       10.0000000000
  C         1.2300000000       13.4926757900       10.0000000000
  C        -1.2300000000       14.9129574500       10.0000000000
  C         0.0000000000       15.6230982800       10.0000000000
  C        -2.4600000000       17.0433799500       10.0000000000
  C        -1.2300000000       17.7535207800       10.0000000000
  C        -3.6900000000       19.1738024400       10.0000000000
  C        -2.4600000000       19.8839432700       10.0000000000
  C         9.8400000000        0.0000000000       10.0000000000
  C        11.0700000000        0.7101408300       10.0000000000
  C         8.6100000000        2.1304224900       10.0000000000
  C         9.8400000000        2.8405633200       10.0000000000
  C         7.3800000000        4.2608449900       10.0000000000
  C         8.6100000000        4.9709858200       10.0000000000
  C         6.1500000000        6.3912674800       10.0000000000
  C         7.3800000000        7.1014083100       10.0000000000
  C         4.9200000000        8.5216899700       10.0000000000
  C         6.1500000000        9.2318308000       10.0000000000
  C         3.6900000000       10.6521124700       10.0000000000
  C         4.9200000000       11.3622533000       10.0000000000
  C         2.4600000000       12.7825349600       10.0000000000
  C         3.6900000000       13.4926757900       10.0000000000
  C         1.2300000000       14.9129574500       10.0000000000
  C         2.4600000000       15.6230982800       10.0000000000
  C         0.0000000000       17.0433799500       10.0000000000
  C         1.2300000000       17.7535207800       10.0000000000
  C        -1.2300000000       19.1738024400       10.0000000000
  C         0.0000000000       19.8839432700       10.0000000000
  C        12.3000000000        0.0000000000       10.0000000000
  C        13.5300000000        0.7101408300       10.0000000000
  C        11.0700000000        2.1304224900       10.0000000000
  C        12.3000000000        2.8405633200       10.0000000000
  C         9.8400000000        4.2608449900       10.0000000000
  C        11.0700000000        4.9709858200       10.0000000000
  C         8.6100000000        6.3912674800       10.0000000000
  C         9.8400000000        7.1014083100       10.0000000000
  C         7.3800000000        8.5216899700       10.0000000000
  C         8.6100000000        9.2318308000       10.0000000000
  C         6.1500000000       10.6521124700       10.0000000000
  C         7.3800000000       11.3622533000       10.0000000000
  C         4.9200000000       12.7825349600       10.0000000000
  C         6.1500000000       13.4926757900       10.0000000000
  C         3.6900000000       14.9129574500       10.0000000000
  C         4.9200000000       15.6230982800       10.0000000000
  C         2.4600000000       17.0433799500       10.0000000000
  C         3.6900000000       17.7535207800       10.0000000000
  C         1.2300000000       19.1738024400       10.0000000000
  C         2.4600000000       19.8839432700       10.0000000000
  C        14.7600000000        0.0000000000       10.0000000000
  C        15.9900000000        0.7101408300       10.0000000000
  C        13.5300000000        2.1304224900       10.0000000000
  C        14.7600000000        2.8405633200       10.0000000000
  C        12.3000000000        4.2608449900       10.0000000000
  C        13.5300000000        4.9709858200       10.0000000000
  C        11.0700000000        6.3912674800       10.0000000000
  C        12.3000000000        7.1014083100       10.0000000000
  C         9.8400000000        8.5216899700       10.0000000000
  C        11.0700000000        9.2318308000       10.0000000000
  C         8.6100000000       10.6521124700       10.0000000000
  C         9.8400000000       11.3622533000       10.0000000000
  C         7.3800000000       12.7825349600       10.0000000000
  C         8.6100000000       13.4926757900       10.0000000000
  C         6.1500000000       14.9129574500       10.0000000000
  C         7.3800000000       15.6230982800       10.0000000000
  C         4.9200000000       17.0433799500       10.0000000000
  C         6.1500000000       17.7535207800       10.0000000000
  C         3.6900000000       19.1738024400       10.0000000000
  C         4.9200000000       19.8839432700       10.0000000000
  C        17.2200000000        0.0000000000       10.0000000000
  C        18.4500000000        0.7101408300       10.0000000000
  C        15.9900000000        2.1304224900       10.0000000000
  C        17.2200000000        2.8405633200       10.0000000000
  C        14.7600000000        4.2608449900       10.0000000000
  C        15.9900000000        4.9709858200       10.0000000000
  C        13.5300000000        6.3912674800       10.0000000000
  C        14.7600000000        7.1014083100       10.0000000000
  C        12.3000000000        8.5216899700       10.0000000000
  C        13.5300000000        9.2318308000       10.0000000000
  C        11.0700000000       10.6521124700       10.0000000000
  C        12.3000000000       11.3622533000       10.0000000000
  C         9.8400000000       12.7825349600       10.0000000000
  C        11.0700000000       13.4926757900       10.0000000000
  C         8.6100000000       14.9129574500       10.0000000000
  C         9.8400000000       15.6230982800       10.0000000000
  C         7.3800000000       17.0433799500       10.0000000000
  C         8.6100000000       17.7535207800       10.0000000000
  C         6.1500000000       19.1738024400       10.0000000000
  C         7.3800000000       19.8839432700       10.0000000000
  C        19.6800000000        0.0000000000       10.0000000000
  C        20.9100000000        0.7101408300       10.0000000000
  C        18.4500000000        2.1304224900       10.0000000000
  C        19.6800000000        2.8405633200       10.0000000000
  C        17.2200000000        4.2608449900       10.0000000000
  C        18.4500000000        4.9709858200       10.0000000000
  C        15.9900000000        6.3912674800       10.0000000000
  C        17.2200000000        7.1014083100       10.0000000000
  C        14.7600000000        8.5216899700       10.0000000000
  C        15.9900000000        9.2318308000       10.0000000000
  C        13.5300000000       10.6521124700       10.0000000000
  C        14.7600000000       11.3622533000       10.0000000000
  C        12.3000000000       12.7825349600       10.0000000000
  C        13.5300000000       13.4926757900       10.0000000000
  C        11.0700000000       14.9129574500       10.0000000000
  C        12.3000000000       15.6230982800       10.0000000000
  C         9.8400000000       17.0433799500       10.0000000000
  C        11.0700000000       17.7535207800       10.0000000000
  C         8.6100000000       19.1738024400       10.0000000000
  C         9.8400000000       19.8839432700       10.0000000000
  C        22.1400000000        0.0000000000       10.0000000000
  C        23.3700000000        0.7101408300       10.0000000000
  C        20.9100000000        2.1304224900       10.0000000000
  C        22.1400000000        2.8405633200       10.0000000000
  C        19.6800000000        4.2608449900       10.0000000000
  C        20.9100000000        4.9709858200       10.0000000000
  C        18.4500000000        6.3912674800       10.0000000000
  C        19.6800000000        7.1014083100       10.0000000000
  C        17.2200000000        8.5216899700       10.0000000000
  C        18.4500000000        9.2318308000       10.0000000000
  C        15.9900000000       10.6521124700       10.0000000000
  C        17.2200000000       11.3622533000       10.0000000000
  C        14.7600000000       12.7825349600       10.0000000000
  C        15.9900000000       13.4926757900       10.0000000000
  C        13.5300000000       14.9129574500       10.0000000000
  C        14.7600000000       15.6230982800       10.0000000000
  C        12.3000000000       17.0433799500       10.0000000000
  C        13.5300000000       17.7535207800       10.0000000000
  C        11.0700000000       19.1738024400       10.0000000000
  C        12.3000000000       19.8839432700       10.0000000000
