200
Lattice="24.6 0.0 0.0 -12.3 21.304224933097192 0.0 0.0 -0.0 20.0" Properties=species:S:1:pos:R:3 pbc="T T F"
C        0.00000000       0.00000000      10.00000000
C        1.23000000       0.71014083      10.00000000
C       -1.23000000       2.13042249      10.00000000
C        0.00000000       2.84056332      10.00000000
C       -2.46000000       4.26084499      10.00000000
C       -1.23000000       4.97098582      10.00000000
C       -3.69000000       6.39126748      10.00000000
C       -2.46000000       7.10140831      10.00000000
C       -4.92000000       8.52168997      10.00000000
C       -3.69000000       9.23183080      10.00000000
C       -6.15000000      10.65211247      10.00000000
C       -4.92000000      11.36225330      10.00000000
C       -7.38000000      12.78253496      10.00000000
C       -6.15000000      13.49267579      10.00000000
C       -8.61000000      14.91295745      10.00000000
C       -7.38000000      15.62309828      10.00000000
C       -9.84000000      17.04337995      10.00000000
C       -8.61000000      17.75352078      10.00000000
C      -11.07000000      19.17380244      10.00000000
C       -9.84000000      19.88394327      10.00000000
C        2.46000000       0.00000000      10.00000000
C        3.69000000       0.71014083      10.00000000
C        1.23000000       2.13042249      10.00000000
C        2.46000000       2.84056332      10.00000000
C        0.00000000       4.26084499      10.00000000
C        1.23000000       4.97098582      10.00000000
C       -1.23000000       6.39126748      10.00000000
C        0.00000000       7.10140831      10.00000000
C       -2.46000000       8.52168997      10.00000000
C       -1.23000000       9.23183080      10.00000000
C       -3.69000000      10.65211247      10.00000000
C       -2.46000000      11.36225330      10.00000000
C       -4.92000000      12.78253496      10.00000000
C       -3.69000000      13.49267579      10.00000000
C       -6.15000000      14.91295745      10.00000000
C       -4.92000000      15.62309828      10.00000000
C       -7.38000000      17.04337995      10.00000000
C       -6.15000000      17.75352078      10.00000000
C       -8.61000000      19.17380244      10.00000000
C       -7.38000000      19.88394327      10.00000000
C        4.92000000       0.00000000      10.00000000
C        6.15000000       0.71014083      10.00000000
C        3.69000000       2.13042249      10.00000000
C        4.92000000       2.84056332      10.00000000
C        2.46000000       4.26084499      10.00000000
C        3.69000000       4.97098582      10.00000000
C        1.23000000       6.39126748      10.00000000
C        2.46000000       7.10140831      10.00000000
C        0.00000000       8.52168997      10.00000000
C        1.23000000       9.23183080      10.00000000
C       -1.23000000      10.65211247      10.00000000
C       -0.00000000      11.36225330      10.00000000
C       -2.46000000      12.78253496      10.00000000
C       -1.23000000      13.49267579      10.00000000
C       -3.69000000      14.91295745      10.00000000
C       -2.46000000      15.62309828      10.00000000
C       -4.92000000      17.04337995      10.00000000
C       -3.69000000      17.75352078      10.00000000
C       -6.15000000      19.17380244      10.00000000
C       -4.92000000      19.88394327      10.00000000
C        7.38000000       0.00000000      10.00000000
C        8.61000000       0.71014083      10.00000000
C        6.15000000       2.13042249      10.00000000
C        7.38000000       2.84056332      10.00000000
C        4.92000000       4.26084499      10.00000000
C        6.15000000       4.97098582      10.00000000
C        3.69000000       6.39126748      10.00000000
C        4.92000000       7.10140831      10.00000000
C        2.46000000       8.52168997      10.00000000
C        3.69000000       9.23183080      10.00000000
C        1.23000000      10.65211247      10.00000000
C        2.46000000      11.36225330      10.00000000
C        0.00000000      12.78253496      10.00000000
C        1.23000000      13.49267579      10.00000000
C       -1.23000000      14.91295745      10.00000000
C        0.00000000      15.62309828      10.00000000
C       -2.46000000      17.04337995      10.00000000
C       -1.23000000      17.75352078      10.00000000
C       -3.69000000      19.17380244      10.00000000
C       -2.46000000      19.88394327      10.00000000
C        9.84000000       0.00000000      10.00000000
C       11.07000000       0.71014083      10.00000000
C        8.61000000       2.13042249      10.00000000
C        9.84000000       2.84056332      10.00000000
C        7.38000000       4.26084499      10.00000000
C        8.61000000       4.97098582      10.00000000
C        6.15000000       6.39126748      10.00000000
C        7.38000000       7.10140831      10.00000000
C        4.92000000       8.52168997      10.00000000
C        6.15000000       9.23183080      10.00000000
C        3.69000000      10.65211247      10.00000000
C        4.92000000      11.36225330      10.00000000
C        2.46000000      12.78253496      10.00000000
C        3.69000000      13.49267579      10.00000000
C        1.23000000      14.91295745      10.00000000
C        2.46000000      15.62309828      10.00000000
C        0.00000000      17.04337995      10.00000000
C        1.23000000      17.75352078      10.00000000
C       -1.23000000      19.17380244      10.00000000
C       -0.00000000      19.88394327      10.00000000
C       12.30000000       0.00000000      10.00000000
C       13.53000000       0.71014083      10.00000000
C       11.07000000       2.13042249      10.00000000
C       12.30000000       2.84056332      10.00000000
C        9.84000000       4.26084499      10.00000000
C       11.07000000       4.97098582      10.00000000
C        8.61000000       6.39126748      10.00000000
C        9.84000000       7.10140831      10.00000000
C        7.38000000       8.52168997      10.00000000
C        8.61000000       9.23183080      10.00000000
C        6.15000000      10.65211247      10.00000000
C        7.38000000      11.36225330      10.00000000
C        4.92000000      12.78253496      10.00000000
C        6.15000000      13.49267579      10.00000000
C        3.69000000      14.91295745      10.00000000
C        4.92000000      15.62309828      10.00000000
C        2.46000000      17.04337995      10.00000000
C        3.69000000      17.75352078      10.00000000
C        1.23000000      19.17380244      10.00000000
C        2.46000000      19.88394327      10.00000000
C       14.76000000       0.00000000      10.00000000
C       15.99000000       0.71014083      10.00000000
C       13.53000000       2.13042249      10.00000000
C       14.76000000       2.84056332      10.00000000
C       12.30000000       4.26084499      10.00000000
C       13.53000000       4.97098582      10.00000000
C       11.07000000       6.39126748      10.00000000
C       12.30000000       7.10140831      10.00000000
C        9.84000000       8.52168997      10.00000000
C       11.07000000       9.23183080      10.00000000
C        8.61000000      10.65211247      10.00000000
C        9.84000000      11.36225330      10.00000000
C        7.38000000      12.78253496      10.00000000
C        8.61000000      13.49267579      10.00000000
C        6.15000000      14.91295745      10.00000000
C        7.38000000      15.62309828      10.00000000
C        4.92000000      17.04337995      10.00000000
C        6.15000000      17.75352078      10.00000000
C        3.69000000      19.17380244      10.00000000
C        4.92000000      19.88394327      10.00000000
C       17.22000000       0.00000000      10.00000000
C       18.45000000       0.71014083      10.00000000
C       15.99000000       2.13042249      10.00000000
C       17.22000000       2.84056332      10.00000000
C       14.76000000       4.26084499      10.00000000
C       15.99000000       4.97098582      10.00000000
C       13.53000000       6.39126748      10.00000000
C       14.76000000       7.10140831      10.00000000
C       12.30000000       8.52168997      10.00000000
C       13.53000000       9.23183080      10.00000000
C       11.07000000      10.65211247      10.00000000
C       12.30000000      11.36225330      10.00000000
C        9.84000000      12.78253496      10.00000000
C       11.07000000      13.49267579      10.00000000
C        8.61000000      14.91295745      10.00000000
C        9.84000000      15.62309828      10.00000000
C        7.38000000      17.04337995      10.00000000
C        8.61000000      17.75352078      10.00000000
C        6.15000000      19.17380244      10.00000000
C        7.38000000      19.88394327      10.00000000
C       19.68000000       0.00000000      10.00000000
C       20.91000000       0.71014083      10.00000000
C       18.45000000       2.13042249      10.00000000
C       19.68000000       2.84056332      10.00000000
C       17.22000000       4.26084499      10.00000000
C       18.45000000       4.97098582      10.00000000
C       15.99000000       6.39126748      10.00000000
C       17.22000000       7.10140831      10.00000000
C       14.76000000       8.52168997      10.00000000
C       15.99000000       9.23183080      10.00000000
C       13.53000000      10.65211247      10.00000000
C       14.76000000      11.36225330      10.00000000
C       12.30000000      12.78253496      10.00000000
C       13.53000000      13.49267579      10.00000000
C       11.07000000      14.91295745      10.00000000
C       12.30000000      15.62309828      10.00000000
C        9.84000000      17.04337995      10.00000000
C       11.07000000      17.75352078      10.00000000
C        8.61000000      19.17380244      10.00000000
C        9.84000000      19.88394327      10.00000000
C       22.14000000       0.00000000      10.00000000
C       23.37000000       0.71014083      10.00000000
C       20.91000000       2.13042249      10.00000000
C       22.14000000       2.84056332      10.00000000
C       19.68000000       4.26084499      10.00000000
C       20.91000000       4.97098582      10.00000000
C       18.45000000       6.39126748      10.00000000
C       19.68000000       7.10140831      10.00000000
C       17.22000000       8.52168997      10.00000000
C       18.45000000       9.23183080      10.00000000
C       15.99000000      10.65211247      10.00000000
C       17.22000000      11.36225330      10.00000000
C       14.76000000      12.78253496      10.00000000
C       15.99000000      13.49267579      10.00000000
C       13.53000000      14.91295745      10.00000000
C       14.76000000      15.62309828      10.00000000
C       12.30000000      17.04337995      10.00000000
C       13.53000000      17.75352078      10.00000000
C       11.07000000      19.17380244      10.00000000
C       12.30000000      19.88394327      10.00000000
